NAME : S042_N100_C_R50
COMMENT : CTDVRPTWB instance
TYPE : CVRPTW
DIMENSION : 102
EDGE_WEIGHT_TYPE : EXPLICIT
EDGE_WEIGHT_FORMAT : FULL_MATRIX
CAPACITY : 200
VEHICLES : 10
EDGE_WEIGHT_SECTION
0 27885 39145 30051 26042 23073 20609 26964 20477 34718 24329 28024 26657 26189 34761 25473 27662 42436 34068 35594 39371 42407 27910 33500 41491 35937 42082 49969 56520 38634 43583 48443 39712 41194 54501 48157 67229 58017 61591 55072 55758 57747 63530 59384 60203 55265 61082 56983 66091 60572 51675 59851 65102 52709 60762 60284 49179 66516 61904 66217 62643 57766 64709 23814 30794 26801 25518 22355 29931 31469 22703 21315 33818 28104 13526 3894 8210 9779 10266 7887 13434 8481 3444 12399 9922 73223 62578 62174 57527 51714 54138 57542 52046 58220 51698 55609 37130 52016 49227 45881 44613 0 
27885 0 11259 4048 1843 8621 7275 5308 7408 6832 5969 2621 6106 1696 9815 4176 41971 54437 46068 47595 51371 54407 40646 45500 53491 47938 69968 77854 84405 66520 71469 76329 67597 69080 82386 76043 55229 46017 49591 43072 43758 45746 51530 47384 48203 43265 49082 44983 54090 48572 39675 87737 92987 80595 88647 88170 77065 94401 89789 94102 90529 85652 92595 44283 58679 45174 46062 50241 50135 39091 50589 49200 47098 42945 22563 23991 19675 20035 31084 19998 25764 19403 24558 25976 17963 45338 34692 34288 29641 23828 26253 29656 24161 30335 23813 27724 54300 72767 64649 69041 59929 27885 
39145 11259 0 9094 13103 16071 18535 12180 18667 4427 14815 11120 12487 12955 13063 13671 53231 57684 49315 50842 55021 57655 51905 48747 56738 51185 81227 89114 95665 77780 82729 87589 78857 80339 93646 87303 51982 42770 46343 39825 40511 42499 48283 44137 44956 40018 45835 41736 50843 45325 36428 98997 104247 91855 99907 99430 88324 105661 101049 105362 101788 96911 103855 55543 69939 56434 57322 61501 61395 50351 61849 60460 58358 54205 33823 35251 30935 31295 42343 31257 37023 30663 35817 37236 29223 34078 23433 23028 19611 17459 17583 18396 12901 21558 12553 20894 65560 84026 75909 80301 71189 39145 
30051 4048 9094 0 4057 12669 9441 3086 9573 10813 10017 2026 3393 3861 5767 8224 44137 50389 42020 43547 47323 50359 42811 41452 49443 43889 72133 80020 86571 68685 73634 78494 69763 71245 84552 78208 59277 50065 53639 47120 47806 49795 55578 51432 52251 47313 53130 49031 58139 52620 43723 89903 95153 82760 90813 90336 79230 96567 91955 96268 92694 87817 94761 46448 60845 47340 48228 52406 52300 41257 52754 51366 49264 45111 24729 26156 21840 22201 33249 22163 27929 21569 26723 28142 20128 43172 32527 32123 27476 21663 24087 27491 21995 28169 21647 25558 56466 74932 66815 71206 62094 30051 
26042 1843 13103 4057 0 8611 5432 5317 5564 8676 5959 2630 6116 1245 9825 4167 40128 54446 46077 47604 51380 54417 39919 45509 53500 47947 68124 76011 82562 64676 69625 74485 65754 67236 80543 74199 55219 46008 49581 43063 43748 45737 51520 47375 48194 43256 49073 44973 54081 48563 39666 85894 91144 78751 86804 86327 75221 92558 87946 92259 88685 83808 90752 42440 56836 43331 44219 48397 48291 37248 48745 47357 45255 41102 20720 22147 17832 18192 29240 18154 23920 17560 22714 24133 16119 47181 36536 36132 31485 25672 28096 31500 26004 32178 25656 29567 52457 70923 62806 67197 58085 26042 
23073 8621 16071 12669 8611 0 13271 13929 6603 11644 2651 11242 14727 9856 18436 4444 48283 63058 54689 56216 59992 63029 48531 54121 62112 56559 65156 73042 79593 61708 66657 71517 62785 64268 77574 71231 46608 37396 40970 34451 35137 37125 42909 38763 39582 34644 40461 36362 45469 39951 31054 82925 88175 75783 83835 83358 72252 89589 84977 89290 85717 80840 87783 39471 53867 40362 41250 45429 45323 34279 45777 44388 42286 38133 17751 19239 16776 15223 26272 18238 20952 14591 19746 21164 13838 50150 39505 39100 34454 28640 31065 34468 28973 35147 28625 32536 57751 72638 69848 66502 65234 23073 
20609 7275 18535 9441 5432 13271 0 6354 6667 14108 10619 7414 6047 5579 14151 8827 35012 49786 41418 42944 46721 49757 35259 40849 48840 43287 62692 70579 77129 59244 64193 69053 60322 61804 75111 68767 59879 50668 54241 47722 48408 50397 56180 52035 52853 47916 53733 49633 58741 53222 44325 80461 85712 73319 81372 80894 69789 87125 82513 86827 83253 78376 85319 37007 51404 37898 38786 42965 42859 31816 43313 41925 39822 35670 15287 16715 12399 12760 23808 12722 18488 12127 17282 18701 10687 52613 41968 41564 36917 31104 33528 36932 31436 37610 31088 34999 47025 65491 57374 61765 52653 20609 
26964 5308 12180 3086 5317 13929 6354 0 7325 12074 11277 2687 798 4072 7796 9485 41050 49128 40760 42286 46063 49099 39724 40192 48183 42629 69047 76933 83484 65599 70548 75408 66676 68158 81465 75122 60537 51325 54899 48380 49066 51055 56838 52693 53511 48573 54391 50291 59399 53880 44983 86816 92066 79674 87726 87249 76143 93480 88868 93181 89607 84731 91674 43362 57758 44253 45141 49320 49214 38170 49668 48279 46177 42024 21642 23070 18754 19114 30163 19076 24843 18482 23636 25055 17042 46259 35614 35209 30563 24749 27174 30577 25082 31256 24734 28645 53379 71845 63728 68120 59008 26964 
20477 7408 18667 9573 5564 6603 6667 7325 0 14240 3951 7547 8123 5711 14283 4996 41679 56454 48085 49612 53388 56425 41927 47517 55508 49955 62560 70446 76997 59112 64061 68921 60189 61672 74978 68635 53212 44000 47573 41055 41741 43729 49512 45367 46186 41248 47065 42966 52073 46555 37658 80329 85579 73187 81239 80762 69656 86993 82381 86694 83120 78244 85187 36875 51271 37766 38654 42833 42727 31683 43181 41792 39690 35537 15155 16583 12267 12627 23676 12589 18356 11995 17149 18568 10555 52746 42101 41696 37050 31236 33661 37064 31569 37743 31221 35132 51147 66034 63244 61633 58630 20477 
34718 6832 4427 10813 8676 11644 14108 12074 14240 0 10388 9386 12872 8528 16581 9244 48804 61202 52834 54360 58137 61173 47478 52266 60257 54703 76800 84687 91238 73353 78301 83162 74430 75912 89219 82875 48463 39251 42825 36306 36992 38981 44764 40619 41437 36499 42317 38217 47325 41806 32909 94570 99820 87427 95480 95003 83897 101234 96622 100935 97361 92484 99428 51116 65512 52007 52895 57074 56968 45924 57421 56033 53931 49778 29396 30823 26508 26868 37916 26830 32596 26236 31390 32809 24795 38505 27860 27456 23130 20977 21102 22824 17328 25077 16980 24413 61133 79599 71482 75873 66761 34718 
24329 5969 14815 10017 5959 2651 10619 11277 3951 10388 0 8590 12075 7204 15785 1792 45631 60406 52037 53564 57340 60377 45879 51469 59460 53907 66412 74299 80849 62964 67913 72773 64041 65524 78831 72487 49260 40048 43621 37103 37789 39777 45561 41415 42234 37296 43113 39014 48121 42603 33706 84181 89432 77039 85091 84614 73509 90845 86233 90546 86973 82096 89039 40727 55124 41618 42506 46685 46579 35536 47033 45644 43542 39389 19007 20435 16119 16480 27528 16442 22208 15847 21002 22420 14407 48893 38248 37844 33197 27384 29808 33212 27717 33890 27369 31280 55099 69986 67196 65485 62582 24329 
28024 2621 11120 2026 2630 11242 7414 2687 7547 9386 8590 0 3485 1835 7194 6798 42110 51815 43447 44973 48750 51786 40785 42879 50870 45316 70107 77994 84544 66659 71608 76468 67737 69219 82526 76182 57850 48638 52212 45693 46379 48368 54151 50005 50824 45886 51703 47604 56712 51193 42296 87876 93127 80734 88787 88309 77204 94540 89928 94242 90668 85791 92734 44422 58819 45313 46201 50380 50274 39231 50728 49340 47237 43084 22702 24130 19814 20175 31223 20137 25903 19542 24697 26115 18102 45198 34553 34149 29502 23689 26113 29517 24022 30195 23673 27585 54440 72906 64789 69180 60068 28024 
26657 6106 12487 3393 6116 14727 6047 798 8123 12872 12075 3485 0 4870 8103 10283 40743 48330 39961 41488 45264 48301 39418 39393 47384 41831 68740 76626 83177 65292 70241 75101 66369 67852 81158 74815 61335 52124 55697 49179 49864 51853 57636 53491 54310 49372 55189 51089 60197 54679 45782 86509 91759 79367 87419 86942 75837 93173 88561 92874 89301 84424 91367 43055 57451 43946 44834 49013 48907 37863 49361 47972 45870 41717 21335 22763 18447 18807 29856 18770 24536 18175 23330 24748 16735 46566 35920 35516 30869 25056 27481 30884 25389 31563 25041 28952 53072 71539 63421 67813 58701 26657 
26189 1696 12955 3861 1245 9856 5579 4072 5711 8528 7204 1835 4870 0 8580 5412 40275 53201 44832 46359 50135 53172 38949 44264 52255 46702 68272 76158 82709 64824 69773 74633 65901 67383 80690 74347 56464 47253 50826 44308 44994 46982 52765 48620 49439 44501 50318 46218 55326 49808 40911 86041 91291 78899 86951 86474 75368 92705 88093 92406 88832 83956 90899 42587 56983 43478 44366 48545 48439 37395 48893 47504 45402 41249 20867 22295 17979 18339 29388 18301 24068 17707 22861 24280 16267 47034 36389 35984 31338 25524 27949 31352 25857 32031 25509 29420 52604 71070 62953 67345 58233 26189 
34761 9815 13063 5767 9825 18436 14151 7796 14283 16581 15785 7194 8103 8580 0 13992 48847 46369 38204 43510 50637 44592 47521 42087 43675 38122 76843 84730 91281 73395 78344 83204 74473 75955 89262 82918 65045 55833 59407 52888 53574 55562 61346 57200 58019 53081 58898 54799 63906 58388 49491 94612 99863 87470 95523 95045 83940 101277 96665 100978 97404 92527 99470 51158 65555 52050 52937 57116 57010 45967 57464 56076 53974 49821 29439 30866 26550 26911 37959 26873 32639 26279 31433 32852 24838 38462 27817 27413 22766 16953 19377 22781 17285 23459 16937 20848 61176 79642 71525 75916 66804 34761 
25473 4176 13671 8224 4167 4444 8827 9485 4996 9244 1792 6798 10283 5412 13992 0 43839 58614 50245 51772 55548 58584 44087 49677 57668 52114 67556 75443 81993 64108 69057 73917 65186 66668 79975 73631 51052 41840 45414 38895 39581 41570 47353 43207 44026 39088 44905 40806 49914 44395 35498 85325 90576 78183 86236 85758 74653 91989 87377 91691 88117 83240 90183 41871 56268 42762 43650 47829 47723 36680 48177 46789 44686 40533 20151 21579 17263 17624 28672 17586 23352 16991 22146 23564 15551 47749 37104 36700 32053 26240 28664 32068 26573 32746 26224 30135 53307 70355 65404 66629 60790 25473 
27662 41971 53231 44137 40128 48283 35012 41050 41679 48804 45631 42110 40743 40275 48847 43839 0 14774 10642 7932 11708 14745 1325 6759 13828 14852 46919 48322 49855 47321 45194 53523 44789 43094 40415 51040 94892 85680 89253 82735 83421 85409 91192 87047 87866 82928 88745 84646 93753 88235 79338 45765 51016 38623 46676 46198 35093 52430 47818 52131 48557 43680 50623 51476 53898 54464 53180 49915 57594 59132 46173 46517 61481 55766 41188 29043 31507 37441 37929 30045 41096 34408 31107 40062 34445 87309 76664 76260 71613 65800 68224 71628 66132 72306 65784 69695 12329 30795 22678 27069 17957 27662 
42436 54437 57684 50389 54446 63058 49786 49128 56454 61202 60406 51815 48330 53201 46369 58614 14774 0 8368 6842 4268 6911 14526 8936 4264 12374 61693 63096 64630 62095 59968 68297 59564 57868 50504 65814 109666 100454 104028 97509 98195 100184 105967 101821 102640 97702 103519 99420 108528 103009 94112 48243 53494 41101 49154 48676 37571 54907 50295 54609 51035 46158 53101 66251 68672 69238 67955 64689 72368 73906 60947 61291 76255 70541 55963 43818 46281 52216 52703 44820 55871 49183 45881 54836 49219 84831 74186 73782 69135 63322 65746 69150 63654 69828 63306 67217 14807 33273 25156 29547 20435 42436 
34068 46068 49315 42020 46077 54689 41418 40760 48085 52834 52037 43447 39961 44832 38204 50245 10642 8368 0 5306 12432 8339 9317 3883 7422 4209 53324 54728 56261 53727 51599 59929 51195 49500 51057 57446 101297 92086 95659 89140 89826 91815 97598 93453 94271 89334 95151 91051 100159 94641 85744 56408 61658 49266 57318 56841 45736 63072 58460 62773 59200 54323 61266 57882 60304 60870 59586 56321 63999 65538 52578 52923 67887 62172 47594 35449 37913 43847 44335 36451 47502 40814 37512 46467 40851 76667 66021 65617 60970 55157 57582 60985 55490 61664 55142 59053 22971 41438 33320 37712 28600 34068 
35594 47595 50842 43547 47604 56216 42944 42286 49612 54360 53564 44973 41488 46359 43510 51772 7932 6842 5306 0 7126 6812 7684 2094 5896 9516 54851 56254 57788 55253 53126 61455 52722 51026 45751 58972 102824 93612 97186 90667 91353 93342 99125 94979 95798 90860 96677 92578 101686 96167 87270 51102 56352 43959 52012 51535 40429 57766 53154 57467 53893 49016 55960 59409 61830 62396 61113 57847 65526 67064 54105 54449 69413 63699 49121 36976 39439 45374 45861 37978 49029 42341 39039 47994 42377 81973 71328 70924 66277 60463 62888 66292 60796 66970 60448 64359 17665 36131 28014 32405 23293 35594 
39371 51371 55021 47323 51380 59992 46721 46063 53388 58137 57340 48750 45264 50135 50637 55548 11708 4268 12432 7126 0 11179 11461 8549 8532 16642 58628 60031 61564 59030 56903 65232 56498 54803 47438 62749 106600 97389 100962 94444 95129 97118 102901 98756 99575 94637 100454 96354 105462 99944 91047 43975 49226 36833 44885 44408 33303 50639 46027 50340 46767 41890 48833 63185 65607 66173 64889 61624 69303 70841 57881 58226 73190 67475 52897 40752 43216 49150 49638 41754 52805 46117 42815 51770 46154 89100 78454 78050 73403 67590 70015 73418 67923 74097 67575 71486 10539 29005 20887 25279 16167 39371 
42407 54407 57655 50359 54417 63029 49757 49099 56425 61173 60377 51786 48301 53172 44592 58584 14745 6911 8339 6812 11179 0 14497 8907 2646 6469 61664 63067 64601 62066 59939 68268 59534 57839 50474 65785 109637 100425 103999 97480 98166 100154 105938 101792 102611 97673 103490 99391 108498 102980 94083 55155 60405 48012 56065 55588 44482 61819 57207 61520 57946 53069 60013 66221 68643 69209 67925 64660 72339 73877 60918 61262 76226 70512 55933 43789 46252 52186 52674 44790 55841 49154 45852 54807 49190 77920 67275 66871 62224 56410 58835 62239 56743 62917 56395 60306 21718 40184 32067 36458 27346 42407 
27910 40646 51905 42811 39919 48531 35259 39724 41927 47478 45879 40785 39418 38949 47521 44087 1325 14526 9317 7684 11461 14497 0 5589 13581 13526 47166 48569 50103 47569 45441 53770 45037 43341 41740 51288 95139 85927 89501 82982 83668 85657 91440 87295 88113 83175 88993 84893 94001 88482 79585 47091 52341 39949 48001 47524 36418 53755 49143 53456 49883 45006 51949 51724 54146 54711 53428 50162 57841 59379 46420 46764 61729 56014 41436 29291 31755 37689 38177 30293 41344 34656 31354 40309 34692 85984 75339 74934 70287 64474 66899 70302 64807 70981 64459 68370 13654 32120 24003 28395 19283 27910 
33500 45500 48747 41452 45509 54121 40849 40192 47517 52266 51469 42879 39393 44264 42087 49677 6759 8936 3883 2094 8549 8907 5589 0 7991 8093 52756 54159 55693 53158 51031 59360 50627 48931 47174 56878 100729 91517 95091 88572 89258 91247 97030 92885 93703 88765 94583 90483 99591 94072 85175 52525 57775 45382 53435 52958 41852 59189 54577 58890 55316 50439 57383 57314 59736 60301 59018 55752 63431 64969 52010 52354 67319 61604 47026 34881 37345 43279 43767 35883 46934 40246 36944 45899 40282 80550 69905 69501 64854 59040 61465 64869 59373 65547 59025 62936 19088 37554 29437 33828 24716 33500 
41491 53491 56738 49443 53500 62112 48840 48183 55508 60257 59460 50870 47384 52255 43675 57668 13828 4264 7422 5896 8532 2646 13581 7991 0 8110 60747 62150 63684 61150 59022 67351 58618 56923 49558 64869 108720 99508 103082 96563 97249 99238 105021 100876 101694 96756 102574 98474 107582 102063 93166 52508 57758 45365 53418 52941 41835 59172 54560 58873 55299 50422 57366 65305 67727 68292 67009 63743 71422 72960 60001 60345 75310 69595 55017 42872 45336 51270 51758 43874 54925 48237 44935 53890 48273 80567 69922 69518 64871 59057 61482 64886 59390 65564 59042 62953 19071 37537 29420 33811 24699 41491 
35937 47938 51185 43889 47947 56559 43287 42629 49955 54703 53907 45316 41831 46702 38122 52114 14852 12374 4209 9516 16642 6469 13526 8093 8110 0 55194 56597 58131 55596 53469 61798 53065 51369 55267 59315 103167 93955 97529 91010 91696 93685 99468 95322 96141 91203 97020 92921 102029 96510 87613 60618 65868 53476 61528 61051 49945 67282 62670 66983 63409 58533 65476 59752 62173 62739 61455 58190 65869 67407 54448 54792 69756 64042 49463 37319 39782 45716 46204 38321 49372 42684 39382 48337 42720 72457 61812 61407 56761 50947 53372 56775 51280 57454 50932 54843 27181 45647 37530 41922 32810 35937 
42082 69968 81227 72133 68124 65156 62692 69047 62560 76800 66412 70107 68740 68272 76843 67556 46919 61693 53324 54851 58628 61664 47166 52756 60747 55194 0 7886 14437 3447 1725 6604 2370 3824 12418 6075 60038 50958 61176 56133 60462 52081 48777 58428 55282 48855 51619 57170 64442 56932 48418 41677 35165 38138 32899 28483 46116 41398 37289 46178 45845 49579 41546 25684 11288 24793 23905 19726 19832 30876 19378 20767 22869 27022 47404 45976 50292 49932 38884 49970 44203 50564 45410 43991 52004 115306 104661 104256 99610 93796 96221 99624 94129 100303 93781 97692 56387 71273 68484 65138 63870 42082 
49969 77854 89114 80020 76011 73042 70579 76933 70446 84687 74299 77994 76626 76158 84730 75443 48322 63096 54728 56254 60031 63067 48569 54159 62150 56597 7886 0 6550 11334 6385 5201 10257 8774 12592 2718 67924 58845 69063 64020 68349 59967 56663 66315 63168 56742 59506 65057 72329 64818 56305 43080 36568 39541 34303 29886 47519 42801 38692 47581 47248 50982 42949 33571 19174 32680 31792 27613 27719 38762 27265 28654 30756 34909 55291 53863 58179 57818 46770 57856 52090 58451 53296 51878 59891 123193 112547 112143 107496 101683 104107 107511 102016 108189 101668 105579 57790 72676 69887 66541 65273 49969 
56520 84405 95665 86571 82562 79593 77129 83484 76997 91238 80849 84544 83177 82709 91281 81993 49855 64630 56261 57788 61564 64601 50103 55693 63684 58131 14437 6550 0 17885 12936 8076 16807 15325 14126 8362 74475 65396 75613 70571 74900 66518 63214 72866 69719 63293 66057 71608 78880 71369 62856 44613 38102 41074 35836 31419 49052 44335 40225 49115 48781 52515 44483 40122 25725 39230 38343 34164 34270 45313 33816 35204 37306 41459 61842 60414 64730 64369 53321 64407 58641 65001 59847 58428 66442 129743 119098 118694 114047 108234 110658 114062 108566 114740 108218 112129 59323 74210 71420 68074 66806 56520 
38634 66520 77780 68685 64676 61708 59244 65599 59112 73353 62964 66659 65292 64824 73395 64108 47321 62095 53727 55253 59030 62066 47569 53158 61150 55596 3447 11334 17885 0 4948 9808 2531 4227 15866 9522 56590 47511 57728 52686 57014 48633 45329 54980 51834 45408 48172 53723 60995 53484 44970 42079 35568 38540 33302 28885 46518 41800 37691 46580 46247 49981 41948 22236 7840 21345 20457 16278 16384 27428 15931 17319 19421 23574 43956 42529 46844 46484 35436 46522 40756 47116 41962 40543 48557 111858 101213 100809 96162 90348 92773 96177 90681 96855 90333 94244 56789 71675 68886 65540 64272 38634 
43583 71469 82729 73634 69625 66657 64193 70548 64061 78301 67913 71608 70241 69773 78344 69057 45194 59968 51599 53126 56903 59939 45441 51031 59022 53469 1725 6385 12936 4948 0 8329 3871 2389 10917 5846 61539 52460 62677 57635 61963 53582 50278 59929 56783 50356 53121 58672 65944 58433 49919 39952 33440 36413 31174 26758 44391 39673 35564 44453 44120 47854 39821 27185 12789 26294 25406 21227 21333 32377 20880 22268 24370 28523 48905 47478 51793 51433 40385 51471 45705 52065 46911 45492 53506 116807 106162 105758 101111 95297 97722 101126 95630 101804 95282 99193 54661 69548 66758 63413 62145 43583 
48443 76329 87589 78494 74485 71517 69053 75408 68921 83162 72773 76468 75101 74633 83204 73917 53523 68297 59929 61455 65232 68268 53770 59360 67351 61798 6604 5201 8076 9808 8329 0 8733 10428 17793 2482 66399 57320 67537 62495 66823 58442 55138 64789 61643 55217 57981 63532 70804 63293 54779 48281 41769 44742 39504 35087 52720 48002 43893 52782 52449 56183 48150 32045 17649 31154 30266 26087 26193 37237 25740 27128 29230 33383 53765 52338 56653 56293 45245 56331 50565 56925 51771 50352 58366 121667 111022 110618 105971 100157 102582 105986 100490 106664 100142 104053 62991 77877 75088 71742 70474 48443 
39712 67597 78857 69763 65754 62785 60322 66676 60189 74430 64041 67737 66369 65901 74473 65186 44789 59564 51195 52722 56498 59534 45037 50627 58618 53065 2370 10257 16807 2531 3871 8733 0 1695 14789 8445 57667 48588 58806 53763 58092 49710 46406 56058 52911 46485 49249 54800 62072 54561 46048 39547 33036 36008 30770 26353 43986 39269 35159 44049 43715 47449 39416 23314 9108 22423 21535 17356 17462 28505 17008 18397 20499 24652 45034 43606 47922 47561 36513 47599 41833 48194 43039 41621 49634 112935 102290 101886 97239 91426 93850 97254 91759 97932 91410 95322 54257 69144 66354 63008 61740 39712 
41194 69080 80339 71245 67236 64268 61804 68158 61672 75912 65524 69219 67852 67383 75955 66668 43094 57868 49500 51026 54803 57839 43341 48931 56923 51369 3824 8774 15325 4227 2389 10428 1695 0 13306 7946 59150 50070 60288 55245 59574 51193 48098 57540 54393 47967 50731 56282 63554 56044 47530 37852 31341 34313 29075 24658 42291 37573 33464 42353 42020 45754 37721 24796 10804 23905 23017 18838 18944 29988 18490 19879 21981 26134 46516 45088 49404 49044 37995 49082 43315 49676 44522 43103 51116 114418 103773 103368 98722 92908 95333 98736 93241 99415 92893 96804 52562 67448 64659 61313 60045 41194 
54501 82386 93646 84552 80543 77574 75111 81465 74978 89219 78831 82526 81158 80690 89262 79975 40415 50504 51057 45751 47438 50474 41740 47174 49558 55267 12418 12592 14126 15866 10917 17793 14789 13306 0 15310 72457 63377 73595 68552 72881 64499 61196 70847 67700 61274 64038 69589 76861 69350 60837 30487 23976 26948 21710 17293 34926 30209 26099 34989 34655 38389 30356 38103 23706 37212 36324 32145 32251 43294 31797 33186 35288 39441 59823 58395 62711 62350 51302 62388 56622 62983 57828 56410 64423 127725 117079 116675 112028 106215 108639 112043 106548 112722 106200 110111 45197 60084 57294 53948 52680 54501 
48157 76043 87303 78208 74199 71231 68767 75122 68635 82875 72487 76182 74815 74347 82918 73631 51040 65814 57446 58972 62749 65785 51288 56878 64869 59315 6075 2718 8362 9522 5846 2482 8445 7946 15310 0 66113 57033 67251 62209 66537 58156 54852 64503 61357 54930 57695 63246 70518 63007 54493 45798 39287 42259 37021 32604 50237 45519 41410 50299 49966 53700 45667 31759 17363 30868 29980 25801 25907 36951 25453 26842 28944 33097 53479 52051 56367 56007 44959 56045 50279 56639 51485 50066 58079 121381 110736 110331 105685 99871 102296 105699 100204 106378 99856 103767 60508 75394 72605 69259 67991 48157 
67229 55229 51982 59277 55219 46608 59879 60537 53212 48463 49260 57850 61335 56464 65045 51052 94892 109666 101297 102824 106600 109637 95139 100729 108720 103167 60038 67924 74475 56590 61539 66399 57667 59150 72457 66113 0 9211 5638 12156 11470 9482 11260 7844 7025 11963 8418 10246 4404 6656 15553 89650 83138 86110 80872 78240 94088 89371 85261 94151 93818 97551 89519 43415 48750 40427 41711 44976 40205 35759 48718 48374 37168 39125 53703 65848 63384 57450 56962 64846 53795 60483 63784 54829 60446 80647 69555 66086 71593 69441 69565 50569 58101 73540 62728 72876 104359 119246 116456 113111 111842 67229 
58017 46017 42770 50065 46008 37396 50668 51325 44000 39251 40048 48638 52124 47253 55833 41840 85680 100454 92086 93612 97389 100425 85927 91517 99508 93955 50958 58845 65396 47511 52460 57320 48588 50070 63377 57033 9211 0 10217 5175 9503 1122 5512 7469 4323 2751 3065 6212 13484 5973 6342 80438 73978 76899 71661 69161 84877 80159 76050 84939 84606 88340 80307 34203 39670 31216 32499 35765 31126 26548 39507 39162 28089 29913 44491 56636 54172 48238 47750 55634 44583 51271 54573 45618 51234 71436 60344 56874 62382 60229 60354 48666 48889 64328 53517 63665 95148 110034 107245 103899 102631 58017 
61591 49591 46343 53639 49581 40970 54241 54899 47573 42825 43621 52212 55697 50826 59407 45414 89253 104028 95659 97186 100962 103999 89501 95091 103082 97529 61176 69063 75613 57728 62677 67537 58806 60288 73595 67251 5638 10217 0 6518 5832 9095 12399 2747 5894 12320 9556 4607 4499 4244 12757 84012 84196 80472 79856 79378 88450 85609 80997 88513 88179 91913 83881 37777 49888 36382 37270 41449 41343 30300 43080 42736 38306 34154 48065 60209 57746 51812 51324 59208 48157 54845 58146 49191 54808 75009 63917 60448 65955 63803 63927 44931 52463 67902 57090 67238 98721 113608 110818 107472 106204 61591 
55072 43072 39825 47120 43063 34451 47722 48380 41055 36306 37103 45693 49179 44308 52888 38895 82735 97509 89140 90667 94444 97480 82982 88572 96563 91010 56133 64020 70571 52686 57635 62495 53763 55245 68552 62209 12156 5175 6518 0 4328 4052 8457 4312 5130 7278 6010 1910 11018 5500 7715 77493 79153 73954 74813 74336 81932 80567 75955 81994 81661 85395 78761 31258 44845 31340 32228 36407 36301 25257 36755 36217 33264 29111 41546 53691 51227 45293 44805 52689 41638 48326 51628 42673 48289 68491 57398 53929 59437 57284 57409 43490 45944 61383 50572 60719 92203 107089 104300 100954 99686 55072 
55758 43758 40511 47806 43748 35137 48408 49066 41741 36992 37789 46379 49864 44994 53574 39581 83421 98195 89826 91353 95129 98166 83668 89258 97249 91696 60462 68349 74900 57014 61963 66823 58092 59574 72881 66537 11470 9503 5832 4328 0 8381 11685 3626 5180 11606 8842 3291 10332 4814 12044 78232 83482 74639 79142 78665 82617 84896 80284 84597 82347 86080 83090 34778 49174 35669 36557 40735 40630 29586 41083 39695 37593 33440 42232 54377 51913 45979 45491 53375 42324 49012 52313 43358 48975 69176 58084 54615 60123 57970 58095 39162 46630 62069 51258 61405 92888 107775 104985 101640 100372 55758 
57747 45746 42499 49795 45737 37125 50397 51055 43729 38981 39777 48368 51853 46982 55562 41570 85409 100184 91815 93342 97118 100154 85657 91247 99238 93685 52081 59967 66518 48633 53582 58442 49710 51193 64499 58156 9482 1122 9095 4052 8381 0 5783 6347 3200 3225 3335 5089 12361 4851 6071 80167 75100 76628 71390 70283 84606 79889 75779 84669 84335 88069 80036 33933 40792 30945 32229 35494 32248 26277 39236 38892 29211 29642 44221 56365 53902 47968 47480 55364 44313 51000 54302 45347 50964 71165 60073 56604 62111 59958 60083 47543 48618 64058 53246 63394 94877 109764 106974 103628 102360 57747 
63530 51530 48283 55578 51520 42909 56180 56838 49512 44764 45561 54151 57636 52765 61346 47353 91192 105967 97598 99125 102901 105938 91440 97030 105021 99468 48777 56663 63214 45329 50278 55138 46406 48098 61196 54852 11260 5512 12399 8457 11685 5783 0 9651 6504 8264 2842 8393 15665 8154 11854 85951 79439 82411 77173 72756 90389 85672 81562 90452 90118 93852 85820 39716 37489 36728 38012 41277 33598 32060 45019 44675 29711 35426 50004 62149 59685 53751 53263 61147 50096 56784 60085 51130 56747 76948 65856 62387 67894 65742 65866 50847 54402 69841 59029 69177 100660 115547 112757 109412 108143 63530 
59384 47384 44137 51432 47375 38763 52035 52693 45367 40619 41415 50005 53491 48620 57200 43207 87047 101821 93453 94979 98756 101792 87295 92885 100876 95322 58428 66315 72866 54980 59929 64789 56058 57540 70847 64503 7844 7469 2747 4312 3626 6347 9651 0 3146 9572 6808 2401 6706 1496 10009 81805 81448 78266 77108 76630 86244 82862 78250 86306 85973 89707 81674 35570 47140 33635 34522 38701 38595 27915 40874 40530 35559 31406 45858 58003 55540 49605 49117 57001 45950 52638 55940 46985 52602 72803 61711 58242 63749 61596 61721 42724 50256 65696 54884 65032 96515 111401 108612 105266 103998 59384 
60203 48203 44956 52251 48194 39582 52853 53511 46186 41437 42234 50824 54310 49439 58019 44026 87866 102640 94271 95798 99575 102611 88113 93703 101694 96141 55282 63168 69719 51834 56783 61643 52911 54393 67700 61357 7025 4323 5894 5130 5180 3200 6504 3146 0 6426 3662 3220 9160 1650 8527 82624 78301 79085 73961 73484 87062 82345 78236 87125 86792 90526 82493 36389 43993 33401 34685 37950 35449 28733 41693 41348 32412 32099 46677 58822 56358 50424 49936 57820 46769 53457 56759 47804 53420 73621 62529 59060 64568 62415 62540 44342 51075 66514 55703 65850 97333 112220 109430 106085 104817 60203 
55265 43265 40018 47313 43256 34644 47916 48573 41248 36499 37296 45886 49372 44501 53081 39088 82928 97702 89334 90860 94637 97673 83175 88765 96756 91203 48855 56742 63293 45408 50356 55217 46485 47967 61274 54930 11963 2751 12320 7278 11606 3225 8264 9572 6426 0 5817 8315 15587 8076 3590 77686 71875 74147 68909 67058 82125 77407 73298 82187 81854 85588 77555 31451 37567 28464 29747 33013 29023 23796 36755 36410 25986 27161 41739 53884 51420 45486 44998 52882 41831 48519 51821 42866 48483 68684 57592 55401 59630 57477 57602 50769 46137 61577 50765 60913 92396 107282 104493 101147 99879 55265 
61082 49082 45835 53130 49073 40461 53733 54391 47065 42317 43113 51703 55189 50318 58898 44905 88745 103519 95151 96677 100454 103490 88993 94583 102574 97020 51619 59506 66057 48172 53121 57981 49249 50731 64038 57695 8418 3065 9556 6010 8842 3335 2842 6808 3662 5817 0 5551 12823 5312 9407 83503 76992 79964 74726 70309 87942 83224 79115 88004 87671 91405 83372 37268 40331 34281 35564 38830 31787 29613 42572 42228 28750 32978 47556 59701 57238 51303 50815 58699 47648 54336 57638 48683 54300 74501 63409 59940 65447 63294 63419 48004 51954 67394 56582 66730 98213 113099 110310 106964 105696 61082 
56983 44983 41736 49031 44973 36362 49633 50291 42966 38217 39014 47604 51089 46218 54799 40806 84646 99420 91051 92578 96354 99391 84893 90483 98474 92921 57170 65057 71608 53723 58672 63532 54800 56282 69589 63246 10246 6212 4607 1910 3291 5089 8393 2401 3220 8315 5551 0 9107 3589 8752 79404 80190 75864 75850 75373 83842 81604 76992 83905 83572 87305 79798 33169 45882 32377 33265 37444 37338 26294 38472 38128 34301 30148 43457 55602 53138 47204 46716 54600 43549 50237 53538 44583 50200 70401 59309 55840 61347 59195 59319 42453 47855 63294 52482 62630 94113 109000 106210 102865 101596 56983 
66091 54090 50843 58139 54081 45469 58741 59399 52073 47325 48121 56712 60197 55326 63906 49914 93753 108528 100159 101686 105462 108498 94001 99591 107582 102029 64442 72329 78880 60995 65944 70804 62072 63554 76861 70518 4404 13484 4499 11018 10332 12361 15665 6706 9160 15587 12823 9107 0 7510 16024 88511 87462 84972 83122 82645 92950 88876 84264 93013 92679 96413 88380 42277 53154 39649 40573 44716 44610 34621 47580 47236 41573 37986 52565 64709 62246 56312 55824 63708 52657 59344 62646 53691 59308 79509 68417 64948 70455 68302 68427 49431 56962 72402 61590 71738 103221 118108 115318 111972 110704 66091 
60572 48572 45325 52620 48563 39951 53222 53880 46555 41806 42603 51193 54679 49808 58388 44395 88235 103009 94641 96167 99944 102980 88482 94072 102063 96510 56932 64818 71369 53484 58433 63293 54561 56044 69350 63007 6656 5973 4244 5500 4814 4851 8154 1496 1650 8076 5312 3589 7510 0 8897 82993 79951 79454 75611 75134 87432 82714 78605 87494 87161 90895 82862 36758 45644 33770 35054 38319 37099 29103 42062 41717 34062 32468 47046 59191 56727 50793 50305 58189 47138 53826 57128 48173 53789 73991 62899 59429 64937 62784 62909 43912 51444 66883 56072 66219 97703 112589 109800 106454 105186 60572 
51675 39675 36428 43723 39666 31054 44325 44983 37658 32909 33706 42296 45782 40911 49491 35498 79338 94112 85744 87270 91047 94083 79585 85175 93166 87613 48418 56305 62856 44970 49919 54779 46048 47530 60837 54493 15553 6342 12757 7715 12044 6071 11854 10009 8527 3590 9407 8752 16024 8897 0 74096 71438 70557 67098 66621 78535 73817 69708 78597 78264 81998 73965 27861 37130 24873 26157 29422 28586 20206 33165 32820 25549 23571 38149 50294 47830 41896 41408 49292 38241 44929 48231 39276 44892 66887 56242 55838 56040 53887 54012 51206 45710 57986 47175 57322 88806 103692 100903 97557 96289 51675 
59851 87737 98997 89903 85894 82925 80461 86816 80329 94570 84181 87876 86509 86041 94612 85325 45765 48243 56408 51102 43975 55155 47091 52525 52508 60618 41677 43080 44613 42079 39952 48281 39547 37852 30487 45798 89650 80438 84012 77493 78232 80167 85951 81805 82624 77686 83503 79404 88511 82993 74096 0 6511 7142 8777 13194 10672 6664 4388 6365 4167 7901 4858 46234 48656 49222 47938 44673 52352 53890 40931 41275 56239 50524 65173 63746 68062 67701 56653 67739 61973 68333 63179 61760 69774 133075 122430 122026 117379 111566 113990 117394 111898 118072 111550 115461 33436 29596 26806 23460 27808 59851 
65102 92987 104247 95153 91144 88175 85712 92066 85579 99820 89432 93127 91759 91291 99863 90576 51016 53494 61658 56352 49226 60405 52341 57775 57758 65868 35165 36568 38102 35568 33440 41769 33036 31341 23976 39287 83138 73978 84196 79153 83482 75100 79439 81448 78301 71875 76992 80190 87462 79951 71438 6511 0 12392 4340 6682 15922 6232 3198 11012 10679 14413 6380 48704 42145 47813 46925 42746 45840 53895 42398 43787 49728 50042 70424 68996 73312 72951 61903 72989 67223 73584 68429 67011 75024 138326 127680 127276 122629 116816 119241 122644 117149 123323 116801 120712 38687 36107 33318 29972 33058 65102 
52709 80595 91855 82760 78751 75783 73319 79674 73187 87427 77039 80734 79367 78899 87470 78183 38623 41101 49266 43959 36833 48012 39949 45382 45365 53476 38138 39541 41074 38540 36413 44742 36008 34313 26948 42259 86110 76899 80472 73954 74639 76628 82411 78266 79085 74147 79964 75864 84972 79454 70557 7142 12392 0 8052 9655 7977 13806 9194 13507 9933 11440 12000 42695 45117 45683 44399 41134 48813 50351 37391 37736 52700 46985 58031 56603 60919 60559 49511 60597 54831 61191 56037 54618 62631 125933 115288 114883 110237 104423 106848 110251 104756 110930 104408 108319 26294 33135 30345 27000 25732 52709 
60762 88647 99907 90813 86804 83835 81372 87726 81239 95480 85091 88787 87419 86951 95523 86236 46676 49154 57318 52012 44885 56065 48001 53435 53418 61528 32899 34303 35836 33302 31174 39504 30770 29075 21710 37021 80872 71661 79856 74813 79142 71390 77173 77108 73961 68909 74726 75850 83122 75611 67098 8777 4340 8052 0 4416 13216 8498 4389 13278 12945 16679 8646 44364 39879 43473 42585 38406 43574 49555 38058 39447 47462 45702 66084 64656 68972 68611 57563 68649 62883 69244 64089 62671 70684 133985 123340 122936 118289 112476 114900 118304 112809 118982 112461 116372 34346 38373 35584 32238 30970 60762 
60284 88170 99430 90336 86327 83358 80894 87249 80762 95003 84614 88309 86942 86474 95045 85758 46198 48676 56841 51535 44408 55588 47524 52958 52941 61051 28483 29886 31419 28885 26758 35087 26353 24658 17293 32604 78240 69161 79378 74336 78665 70283 72756 76630 73484 67058 70309 75373 82645 75134 66621 13194 6682 9655 4416 0 17632 12915 8806 17695 17362 21096 13063 43887 35462 42995 42107 37929 39158 49078 37581 38969 43045 45224 65606 64179 68495 68134 57086 68172 62406 68766 63612 62193 70207 133508 122863 122459 117812 111999 114423 117827 112331 118505 111983 115894 33869 42790 40000 36655 35387 60284 
49179 77065 88324 79230 75221 72252 69789 76143 69656 83897 73509 77204 75837 75368 83940 74653 35093 37571 45736 40429 33303 44482 36418 41852 41835 49945 46116 47519 49052 46518 44391 52720 43986 42291 34926 50237 94088 84877 88450 81932 82617 84606 90389 86244 87062 82125 87942 83842 92950 87432 78535 10672 15922 7977 13216 17632 0 17336 12724 17037 13464 8587 15530 50673 53095 53661 52377 49112 56791 58329 45369 45714 60678 54963 54501 53073 57389 57029 45980 57066 51300 57661 52506 51088 59101 122403 111758 111353 106706 100893 103318 106721 101226 107400 100878 104789 22764 25157 22367 19022 17754 49179 
66516 94401 105661 96567 92558 89589 87125 93480 86993 101234 90845 94540 93173 92705 101277 91989 52430 54907 63072 57766 50639 61819 53755 59189 59172 67282 41398 42801 44335 41800 39673 48002 39269 37573 30209 45519 89371 80159 85609 80567 84896 79889 85672 82862 82345 77407 83224 81604 88876 82714 73817 6664 6232 13806 8498 12915 17336 0 4612 4779 4446 8749 1806 50118 48377 49227 48339 44394 52073 55309 43812 45200 55961 51455 71838 70410 74726 74365 63317 74403 68637 74998 69843 68424 76438 139739 129094 128690 124043 118230 120654 124058 118562 124736 118214 122125 40100 29874 29751 25360 34472 66516 
61904 89789 101049 91955 87946 84977 82513 88868 82381 96622 86233 89928 88561 88093 96665 87377 47818 50295 58460 53154 46027 57207 49143 54577 54560 62670 37289 38692 40225 37691 35564 43893 35159 33464 26099 41410 85261 76050 80997 75955 80284 75779 81562 78250 78236 73298 79115 76992 84264 78605 69708 4388 3198 9194 4389 8806 12724 4612 0 8889 8556 12289 4257 45506 44268 44834 43727 40285 47964 50697 39200 40588 51851 46843 67226 65798 70114 69753 58705 69791 64025 70385 65231 63812 71826 135127 124482 124078 119431 113618 116042 119446 113950 120124 113602 117513 35488 33984 31194 27849 29860 61904 
66217 94102 105362 96268 92259 89290 86827 93181 86694 100935 90546 94242 92874 92406 100978 91691 52131 54609 62773 57467 50340 61520 53456 58890 58873 66983 46178 47581 49115 46580 44453 52782 44049 42353 34989 50299 94151 84939 88513 81994 84597 84669 90452 86306 87125 82187 88004 83905 93013 87494 78597 6365 11012 13507 13278 17695 17037 4779 8889 0 3573 8450 4632 50736 53157 53723 52440 49174 56853 58391 45432 45776 60740 55026 71539 70111 74427 74066 63018 74104 68338 74699 69544 68126 76139 139440 128795 128391 123744 117931 120355 123759 118264 124437 117915 121827 39801 25094 29452 25061 34173 66217 
62643 90529 101788 92694 88685 85717 83253 89607 83120 97361 86973 90668 89301 88832 97404 88117 48557 51035 59200 53893 46767 57946 49883 55316 55299 63409 45845 47248 48781 46247 44120 52449 43715 42020 34655 49966 93818 84606 88179 81661 82347 84335 90118 85973 86792 81854 87671 83572 92679 87161 78264 4167 10679 9933 12945 17362 13464 4446 8556 3573 0 4876 4298 50402 52824 53390 52106 48841 56520 58058 45099 45443 60407 54692 67965 66537 70853 70493 59444 70531 64764 71125 65970 64552 72565 135867 125222 124817 120171 114357 116782 120185 114690 120864 114342 118253 36228 25428 25879 21487 30599 62643 
57766 85652 96911 87817 83808 80840 78376 84731 78244 92484 82096 85791 84424 83956 92527 83240 43680 46158 54323 49016 41890 53069 45006 50439 50422 58533 49579 50982 52515 49981 47854 56183 47449 45754 38389 53700 97551 88340 91913 85395 86080 88069 93852 89707 90526 85588 91405 87305 96413 90895 81998 7901 14413 11440 16679 21096 8587 8749 12289 8450 4876 0 8032 54136 56558 57124 55840 52575 60254 61792 48832 49177 64141 58426 63088 61660 65976 65616 54568 65654 59888 66248 61094 59675 67688 130990 120345 119940 115294 109480 111905 115308 109813 115987 109465 113376 31351 21694 21002 16610 25722 57766 
64709 92595 103855 94761 90752 87783 85319 91674 85187 99428 89039 92734 91367 90899 99470 90183 50623 53101 61266 55960 48833 60013 51949 57383 57366 65476 41546 42949 44483 41948 39821 48150 39416 37721 30356 45667 89519 80307 83881 78761 83090 80036 85820 81674 82493 77555 83372 79798 88380 82862 73965 4858 6380 12000 8646 13063 15530 1806 4257 4632 4298 8032 0 48312 48525 49091 47807 44542 52221 53759 42006 43394 56108 50394 70031 68604 72920 72559 61511 72597 66831 73191 68037 66618 74632 137933 127288 126884 122237 116424 118848 122252 116756 122930 116408 120319 38294 29727 27945 23591 32666 64709 
23814 44283 55543 46448 42440 39471 37007 43362 36875 51116 40727 44422 43055 42587 51158 41871 51476 66251 57882 59409 63185 66221 51724 57314 65305 59752 25684 33571 40122 22236 27185 32045 23314 24796 38103 31759 43415 34203 37777 31258 34778 33933 39716 35570 36389 31451 37268 33169 42277 36758 27861 46234 48704 42695 44364 43887 50673 50118 45506 50736 50402 54136 48312 0 14396 2987 1779 5957 6117 7655 6305 4959 10004 4290 21719 22432 24608 24247 13547 24285 18519 24879 20369 18306 26320 89621 78976 78572 73925 68112 70536 73940 68444 74618 68096 72007 60944 75831 73041 69695 68427 23814 
30794 58679 69939 60845 56836 53867 51404 57758 51271 65512 55124 58819 57451 56983 65555 56268 53898 68672 60304 61830 65607 68643 54146 59736 67727 62173 11288 19174 25725 7840 12789 17649 9108 10804 23706 17363 48750 39670 49888 44845 49174 40792 37489 47140 43993 37567 40331 45882 53154 45644 37130 48656 42145 45117 39879 35462 53095 48377 44268 53157 52824 56558 48525 14396 0 13505 12617 8438 8544 19588 8090 9479 11581 15734 36116 34688 39004 38643 27595 38681 32915 39276 34121 32703 40716 104018 93372 92968 88321 82508 84933 88336 82841 89015 82493 86404 63366 78252 75463 72117 70849 30794 
26801 45174 56434 47340 43331 40362 37898 44253 37766 52007 41618 45313 43946 43478 52050 42762 54464 69238 60870 62396 66173 69209 54711 60301 68292 62739 24793 32680 39230 21345 26294 31154 22423 23905 37212 30868 40427 31216 36382 31340 35669 30945 36728 33635 33401 28464 34281 32377 39649 33770 24873 49222 47813 45683 43473 42995 53661 49227 44834 53723 53390 57124 49091 2987 13505 0 1283 5066 4960 6082 8291 7946 7017 2228 22611 25420 25499 25138 16534 25176 19410 25770 23357 19197 27211 90512 79867 79463 74816 69003 71427 74831 69335 75509 68987 72898 63932 78818 76029 72683 71415 26801 
25518 46062 57322 48228 44219 41250 38786 45141 38654 52895 42506 46201 44834 44366 52937 43650 53180 67955 59586 61113 64889 67925 53428 59018 67009 61455 23905 31792 38343 20457 25406 30266 21535 23017 36324 29980 41711 32499 37270 32228 36557 32229 38012 34522 34685 29747 35564 33265 40573 35054 26157 47938 46925 44399 42585 42107 52377 48339 43727 52440 52106 55840 47807 1779 12617 1283 0 4178 4413 6970 7007 6663 8300 3116 23498 24136 26387 26026 15251 26064 20298 26658 22073 20085 28099 91400 80755 80351 75704 69891 72315 75719 70223 76397 69875 73786 62648 77534 74745 71399 70131 25518 
22355 50241 61501 52406 48397 45429 42965 49320 42833 57074 46685 50380 49013 48545 57116 47829 49915 64689 56321 57847 61624 64660 50162 55752 63743 58190 19726 27613 34164 16278 21227 26087 17356 18838 32145 25801 44976 35765 41449 36407 40735 35494 41277 38701 37950 33013 38830 37444 44716 38319 29422 44673 42746 41134 38406 37929 49112 44394 40285 49174 48841 52575 44542 5957 8438 5066 4178 0 7678 11149 3742 3397 11566 7295 27677 26250 30565 30205 19157 30243 24477 30837 25683 24264 32278 95579 84934 84530 79883 74069 76494 79898 74402 80576 74054 77965 59383 74269 71480 68134 66866 22355 
29931 50135 61395 52300 48291 45323 42859 49214 42727 56968 46579 50274 48907 48439 57010 47723 57594 72368 63999 65526 69303 72339 57841 63431 71422 65869 19832 27719 34270 16384 21333 26193 17462 18944 32251 25907 40205 31126 41343 36301 40630 32248 33598 38595 35449 29023 31787 37338 44610 37099 28586 52352 45840 48813 43574 39158 56791 52073 47964 56853 56520 60254 52221 6117 8544 4960 4413 7678 0 11043 11421 11076 3887 7189 27571 28550 30459 30099 19664 30137 24371 30731 26487 24158 32172 95473 84828 84424 79777 73963 76388 79792 74296 80470 73948 77859 67062 81948 79158 75813 74545 29931 
31469 39091 50351 41257 37248 34279 31816 38170 31683 45924 35536 39231 37863 37395 45967 36680 59132 73906 65538 67064 70841 73877 59379 64969 72960 67407 30876 38762 45313 27428 32377 37237 28505 29988 43294 36951 35759 26548 30300 25257 29586 26277 32060 27915 28733 23796 29613 26294 34621 29103 20206 53890 53895 50351 49555 49078 58329 55309 50697 58391 58058 61792 53759 7655 19588 6082 6970 11149 11043 0 12959 12614 8006 3853 17943 30088 27624 21690 21202 29086 18035 24723 28025 19070 24686 84430 73784 73380 68733 62920 65345 68748 63253 69427 62905 66816 68600 83486 80697 77351 76083 31469 
22703 50589 61849 52754 48745 45777 43313 49668 43181 57421 47033 50728 49361 48893 57464 48177 46173 60947 52578 54105 57881 60918 46420 52010 60001 54448 19378 27265 33816 15931 20880 25740 17008 18490 31797 25453 48718 39507 43080 36755 41083 39236 45019 40874 41693 36755 42572 38472 47580 42062 33165 40931 42398 37391 38058 37581 45369 43812 39200 45432 45099 48832 42006 6305 8090 8291 7007 3742 11421 12959 0 1388 15308 9593 28025 26598 30913 30553 19505 30591 24825 31185 26031 24612 32625 95927 85282 84878 80231 74417 76842 80246 74750 80924 74402 78313 55640 70527 67737 64392 63124 22703 
21315 49200 60460 51366 47357 44388 41925 48279 41792 56033 45644 49340 47972 47504 56076 46789 46517 61291 52923 54449 58226 61262 46764 52354 60345 54792 20767 28654 35204 17319 22268 27128 18397 19879 33186 26842 48374 39162 42736 36217 39695 38892 44675 40530 41348 36410 42228 38128 47236 41717 32820 41275 43787 37736 39447 38969 45714 45200 40588 45776 45443 49177 43394 4959 9479 7946 6663 3397 11076 12614 1388 0 14964 9249 26637 25209 29525 29164 18116 29202 23436 29797 24642 23224 31237 94538 83893 83489 78842 73029 75453 78857 73362 79535 73013 76925 55985 70871 68082 64736 63468 21315 
33818 47098 58358 49264 45255 42286 39822 46177 39690 53931 43542 47237 45870 45402 53974 44686 61481 76255 67887 69413 73190 76226 61729 67319 75310 69756 22869 30756 37306 19421 24370 29230 20499 21981 35288 28944 37168 28089 38306 33264 37593 29211 29711 35559 32412 25986 28750 34301 41573 34062 25549 56239 49728 52700 47462 43045 60678 55961 51851 60740 60407 64141 56108 10004 11581 7017 8300 11566 3887 8006 15308 14964 0 5714 24535 32437 29974 27062 23551 31435 21334 27695 30374 21419 29135 92436 81791 81387 76740 70927 73351 76755 71259 77433 70911 74822 70949 85835 83046 79700 78432 33818 
28104 42945 54205 45111 41102 38133 35670 42024 35537 49778 39389 43084 41717 41249 49821 40533 55766 70541 62172 63699 67475 70512 56014 61604 69595 64042 27022 34909 41459 23574 28523 33383 24652 26134 39441 33097 39125 29913 34154 29111 33440 29642 35426 31406 32099 27161 32978 30148 37986 32468 23571 50524 50042 46985 45702 45224 54963 51455 46843 55026 54692 58426 50394 4290 15734 2228 3116 7295 7189 3853 9593 9249 5714 0 20382 26722 24259 22909 17837 25721 17181 23542 24659 16969 24982 88283 77638 77234 72587 66774 69198 72602 67107 73280 66758 70669 65234 80121 77331 73985 72717 28104 
13526 22563 33823 24729 20720 17751 15287 21642 15155 29396 19007 22702 21335 20867 29439 20151 41188 55963 47594 49121 52897 55933 41436 47026 55017 49463 47404 55291 61842 43956 48905 53765 45034 46516 59823 53479 53703 44491 48065 41546 42232 44221 50004 45858 46677 41739 47556 43457 52565 47046 38149 65173 70424 58031 66084 65606 54501 71838 67226 71539 67965 63088 70031 21719 36116 22611 23498 27677 27571 17943 28025 26637 24535 20382 0 12144 9681 3747 8520 11142 3200 6779 10081 3413 6743 67901 57256 56852 52205 46392 48816 52220 46724 52898 46376 50287 50656 65543 62753 59407 58139 13526 
3894 23991 35251 26156 22147 19239 16715 23070 16583 30823 20435 24130 22763 22295 30866 21579 29043 43818 35449 36976 40752 43789 29291 34881 42872 37319 45976 53863 60414 42529 47478 52338 43606 45088 58395 52051 65848 56636 60209 53691 54377 56365 62149 58003 58822 53884 59701 55602 64709 59191 50294 63746 68996 56603 64656 64179 53073 70410 65798 70111 66537 61660 68604 22432 34688 25420 24136 26250 28550 30088 26598 25209 32437 26722 12144 0 4315 8397 8885 3993 12052 5364 2063 11018 6027 69329 58684 58280 53633 47819 50244 53648 48152 54326 47804 51715 38511 53398 50608 47262 45994 3894 
8210 19675 30935 21840 17832 16776 12399 18754 12267 26508 16119 19814 18447 17979 26550 17263 31507 46281 37913 39439 43216 46252 31755 37345 45336 39782 50292 58179 64730 46844 51793 56653 47922 49404 62711 56367 63384 54172 57746 51227 51913 53902 59685 55540 56358 51420 57238 53138 62246 56727 47830 68062 73312 60919 68972 68495 57389 74726 70114 74427 70853 65976 72920 24608 39004 25499 26387 30565 30459 27624 30913 29525 29974 24259 9681 4315 0 5934 11408 1461 9589 2901 4882 8554 2937 65013 54368 53964 49317 43504 45928 49332 43836 50010 43488 47399 40975 55861 53072 49726 48458 8210 
9779 20035 31295 22201 18192 15223 12760 19114 12627 26868 16480 20175 18807 18339 26911 17624 37441 52216 43847 45374 49150 52186 37689 43279 51270 45716 49932 57818 64369 46484 51433 56293 47561 49044 62350 56007 57450 48238 51812 45293 45979 47968 53751 49605 50424 45486 51303 47204 56312 50793 41896 67701 72951 60559 68611 68134 57029 74365 69753 74066 70493 65616 72559 24247 38643 25138 26026 30205 30099 21690 30553 29164 27062 22909 3747 8397 5934 0 11048 7395 5728 3032 6334 5940 2996 65374 54728 54324 49677 43864 46289 49692 44197 50371 43849 47760 46909 61795 59006 55660 54392 9779 
10266 31084 42343 33249 29240 26272 23808 30163 23676 37916 27528 31223 29856 29388 37959 28672 37929 52703 44335 45861 49638 52674 38177 43767 51758 46204 38884 46770 53321 35436 40385 45245 36513 37995 51302 44959 56962 47750 51324 44805 45491 47480 53263 49117 49936 44998 50815 46716 55824 50305 41408 56653 61903 49511 57563 57086 45980 63317 58705 63018 59444 54568 61511 13547 27595 16534 15251 19157 19664 21202 19505 18116 23551 17837 8520 8885 11408 11048 0 11086 5319 11680 6822 5107 13120 76422 65777 65372 60726 54912 57337 60740 55245 61419 54897 58808 47397 62283 59494 56148 54880 10266 
7887 19998 31257 22163 18154 18238 12722 19076 12589 26830 16442 20137 18770 18301 26873 17586 30045 44820 36451 37978 41754 44790 30293 35883 43874 38321 49970 57856 64407 46522 51471 56331 47599 49082 62388 56045 64846 55634 59208 52689 53375 55364 61147 57001 57820 52882 58699 54600 63708 58189 49292 67739 72989 60597 68649 68172 57066 74403 69791 74104 70531 65654 72597 24285 38681 25176 26064 30243 30137 29086 30591 29202 31435 25721 11142 3993 1461 7395 11086 0 11050 4363 4560 10016 4399 65336 54691 54286 49640 43826 46251 49654 44159 50333 43811 47722 39513 54400 51610 49043 46996 7887 
13434 25764 37023 27929 23920 20952 18488 24843 18356 32596 22208 25903 24536 24068 32639 23352 41096 55871 47502 49029 52805 55841 41344 46934 54925 49372 44203 52090 58641 40756 45705 50565 41833 43315 56622 50279 53795 44583 48157 41638 42324 44313 50096 45950 46769 41831 47648 43549 52657 47138 38241 61973 67223 54831 62883 62406 51300 68637 64025 68338 64764 59888 66831 18519 32915 19410 20298 24477 24371 18035 24825 23436 21334 17181 3200 12052 9589 5728 5319 11050 0 6687 9989 1034 7800 71102 60457 60052 55406 49592 52017 55420 49925 56099 49577 53488 50564 65451 62661 59315 58047 13434 
8481 19403 30663 21569 17560 14591 12127 18482 11995 26236 15847 19542 18175 17707 26279 16991 34408 49183 40814 42341 46117 49154 34656 40246 48237 42684 50564 58451 65001 47116 52065 56925 48194 49676 62983 56639 60483 51271 54845 48326 49012 51000 56784 52638 53457 48519 54336 50237 59344 53826 44929 68333 73584 61191 69244 68766 57661 74998 70385 74699 71125 66248 73191 24879 39276 25770 26658 30837 30731 24723 31185 29797 27695 23542 6779 5364 2901 3032 11680 4363 6687 0 5154 6573 1440 64741 54096 53692 49045 43232 45656 49060 43564 49738 43216 47127 43876 58763 55973 52627 51359 8481 
3444 24558 35817 26723 22714 19746 17282 23636 17149 31390 21002 24697 23330 22861 31433 22146 31107 45881 37512 39039 42815 45852 31354 36944 44935 39382 45410 53296 59847 41962 46911 51771 43039 44522 57828 51485 63784 54573 58146 51628 52313 54302 60085 55940 56759 51821 57638 53538 62646 57128 48231 63179 68429 56037 64089 63612 52506 69843 65231 69544 65970 61094 68037 20369 34121 23357 22073 25683 26487 28025 26031 24642 30374 24659 10081 2063 4882 6334 6822 4560 9989 5154 0 8955 6594 69896 59251 58846 54200 48386 50811 54214 48719 54893 48371 52282 40574 55461 52671 49326 48058 3444 
12399 25976 37236 28142 24133 21164 18701 25055 18568 32809 22420 26115 24748 24280 32852 23564 40062 54836 46467 47994 51770 54807 40309 45899 53890 48337 43991 51878 58428 40543 45492 50352 41621 43103 56410 50066 54829 45618 49191 42673 43358 45347 51130 46985 47804 42866 48683 44583 53691 48173 39276 61760 67011 54618 62671 62193 51088 68424 63812 68126 64552 59675 66618 18306 32703 19197 20085 24264 24158 19070 24612 23224 21419 16969 3413 11018 8554 5940 5107 10016 1034 6573 8955 0 8013 71314 60669 60265 55618 49805 52229 55633 50137 56311 49789 53700 49529 64416 61626 58281 57013 12399 
9922 17963 29223 20128 16119 13838 10687 17042 10555 24795 14407 18102 16735 16267 24838 15551 34445 49219 40851 42377 46154 49190 34692 40282 48273 42720 52004 59891 66442 48557 53506 58366 49634 51116 64423 58079 60446 51234 54808 48289 48975 50964 56747 52602 53420 48483 54300 50200 59308 53789 44892 69774 75024 62631 70684 70207 59101 76438 71826 76139 72565 67688 74632 26320 40716 27211 28099 32278 32172 24686 32625 31237 29135 24982 6743 6027 2937 2996 13120 4399 7800 1440 6594 8013 0 63301 52656 52252 47605 41791 44216 47620 42124 48298 41776 45687 43913 58799 56010 52664 51396 9922 
73223 45338 34078 43172 47181 50150 52613 46259 52746 38505 48893 45198 46566 47034 38462 47749 87309 84831 76667 81973 89100 77920 85984 80550 80567 72457 115306 123193 129743 111858 116807 121667 112935 114418 127725 121381 80647 71436 75009 68491 69176 71165 76948 72803 73621 68684 74501 70401 79509 73991 66887 133075 138326 125933 133985 133508 122403 139739 135127 139440 135867 130990 137933 89621 104018 90512 91400 95579 95473 84430 95927 94538 92436 88283 67901 69329 65013 65374 76422 65336 71102 64741 69896 71314 63301 0 11092 14561 15696 21509 19085 30078 22546 15003 21524 17613 99639 118105 109987 114379 105267 73223 
62578 34692 23433 32527 36536 39505 41968 35614 42101 27860 38248 34553 35920 36389 27817 37104 76664 74186 66021 71328 78454 67275 75339 69905 69922 61812 104661 112547 119098 101213 106162 111022 102290 103773 117079 110736 69555 60344 63917 57398 58084 60073 65856 61711 62529 57592 63409 59309 68417 62899 56242 122430 127680 115288 123340 122863 111758 129094 124482 128795 125222 120345 127288 78976 93372 79867 80755 84934 84828 73784 85282 83893 81791 77638 57256 58684 54368 54728 65777 54691 60457 54096 59251 60669 52656 11092 0 3469 5051 10864 8439 18986 11454 4357 10879 6968 88993 107460 99342 103734 94622 62578 
62174 34288 23028 32123 36132 39100 41564 35209 41696 27456 37844 34149 35516 35984 27413 36700 76260 73782 65617 70924 78050 66871 74934 69501 69518 61407 104256 112143 118694 100809 105758 110618 101886 103368 116675 110331 66086 56874 60448 53929 54615 56604 62387 58242 59060 55401 59940 55840 64948 59429 55838 122026 127276 114883 122936 122459 111353 128690 124078 128391 124817 119940 126884 78572 92968 79463 80351 84530 84424 73380 84878 83489 81387 77234 56852 58280 53964 54324 65372 54286 60052 53692 58846 60265 52252 14561 3469 0 5507 10460 8035 15517 10127 7453 10475 6790 88589 107055 98938 103330 94218 62174 
57527 29641 19611 27476 31485 34454 36917 30563 37050 23130 33197 29502 30869 31338 22766 32053 71613 69135 60970 66277 73403 62224 70287 64854 64871 56761 99610 107496 114047 96162 101111 105971 97239 98722 112028 105685 71593 62382 65955 59437 60123 62111 67894 63749 64568 59630 65447 61347 70455 64937 56040 117379 122629 110237 118289 117812 106706 124043 119431 123744 120171 115294 122237 73925 88321 74816 75704 79883 79777 68733 80231 78842 76740 72587 52205 53633 49317 49677 60726 49640 55406 49045 54200 55618 47605 15696 5051 5507 0 5813 3388 21024 13492 1946 8865 1917 83942 102408 94291 98683 89571 57527 
51714 23828 17459 21663 25672 28640 31104 24749 31236 20977 27384 23689 25056 25524 16953 26240 65800 63322 55157 60463 67590 56410 64474 59040 59057 50947 93796 101683 108234 90348 95297 100157 91426 92908 106215 99871 69441 60229 63803 57284 57970 59958 65742 61596 62415 57477 63294 59195 68302 62784 53887 111566 116816 104423 112476 111999 100893 118230 113618 117931 114357 109480 116424 68112 82508 69003 69891 74069 73963 62920 74417 73029 70927 66774 46392 47819 43504 43864 54912 43826 49592 43232 48386 49805 41791 21509 10864 10460 5813 0 2424 18871 11339 6506 6712 3895 78129 96595 88478 92869 83757 51714 
54138 26253 17583 24087 28096 31065 33528 27174 33661 21102 29808 26113 27481 27949 19377 28664 68224 65746 57582 62888 70015 58835 66899 61465 61482 53372 96221 104107 110658 92773 97722 102582 93850 95333 108639 102296 69565 60354 63927 57409 58095 60083 65866 61721 62540 57602 63419 59319 68427 62909 54012 113990 119241 106848 114900 114423 103318 120654 116042 120355 116782 111905 118848 70536 84933 71427 72315 76494 76388 65345 76842 75453 73351 69198 48816 50244 45928 46289 57337 46251 52017 45656 50811 52229 44216 19085 8439 8035 3388 2424 0 18996 11464 4082 6837 3310 80554 99020 90902 95294 86182 54138 
57542 29656 18396 27491 31500 34468 36932 30577 37064 22824 33212 29517 30884 31352 22781 32068 71628 69150 60985 66292 73418 62239 70302 64869 64886 56775 99624 107511 114062 96177 101126 105986 97254 98736 112043 105699 50569 48666 44931 43490 39162 47543 50847 42724 44342 50769 48004 42453 49431 43912 51206 117394 122644 110251 118304 117827 106721 124058 119446 123759 120185 115308 122252 73940 88336 74831 75719 79898 79792 68748 80246 78857 76755 72602 52220 53648 49332 49692 60740 49654 55420 49060 54214 55633 47620 30078 18986 15517 21024 18871 18996 0 7531 22971 12159 22307 83957 102423 94306 98698 89586 57542 
52046 24161 12901 21995 26004 28973 31436 25082 31569 17328 27717 24022 25389 25857 17285 26573 66132 63654 55490 60796 67923 56743 64807 59373 59390 51280 94129 102016 108566 90681 95630 100490 91759 93241 106548 100204 58101 48889 52463 45944 46630 48618 54402 50256 51075 46137 51954 47855 56962 51444 45710 111898 117149 104756 112809 112331 101226 118562 113950 118264 114690 109813 116756 68444 82841 69335 70223 74402 74296 63253 74750 73362 71259 67107 46724 48152 43836 44197 55245 44159 49925 43564 48719 50137 42124 22546 11454 10127 13492 11339 11464 7531 0 15439 4627 14775 78462 96928 88811 93202 84090 52046 
58220 30335 21558 28169 32178 35147 37610 31256 37743 25077 33890 30195 31563 32031 23459 32746 72306 69828 61664 66970 74097 62917 70981 65547 65564 57454 100303 108189 114740 96855 101804 106664 97932 99415 112722 106378 73540 64328 67902 61383 62069 64058 69841 65696 66514 61577 67394 63294 72402 66883 57986 118072 123323 110930 118982 118505 107400 124736 120124 124437 120864 115987 122930 74618 89015 75509 76397 80576 80470 69427 80924 79535 77433 73280 52898 54326 50010 50371 61419 50333 56099 49738 54893 56311 48298 15003 4357 7453 1946 6506 4082 22971 15439 0 10811 2610 84636 103102 94984 99376 90264 58220 
51698 23813 12553 21647 25656 28625 31088 24734 31221 16980 27369 23673 25041 25509 16937 26224 65784 63306 55142 60448 67575 56395 64459 59025 59042 50932 93781 101668 108218 90333 95282 100142 91410 92893 106200 99856 62728 53517 57090 50572 51258 53246 59029 54884 55703 50765 56582 52482 61590 56072 47175 111550 116801 104408 112461 111983 100878 118214 113602 117915 114342 109465 116408 68096 82493 68987 69875 74054 73948 62905 74402 73013 70911 66758 46376 47804 43488 43849 54897 43811 49577 43216 48371 49789 41776 21524 10879 10475 8865 6712 6837 12159 4627 10811 0 10147 78114 96580 88462 92854 83742 51698 
55609 27724 20894 25558 29567 32536 34999 28645 35132 24413 31280 27585 28952 29420 20848 30135 69695 67217 59053 64359 71486 60306 68370 62936 62953 54843 97692 105579 112129 94244 99193 104053 95322 96804 110111 103767 72876 63665 67238 60719 61405 63394 69177 65032 65850 60913 66730 62630 71738 66219 57322 115461 120712 108319 116372 115894 104789 122125 117513 121827 118253 113376 120319 72007 86404 72898 73786 77965 77859 66816 78313 76925 74822 70669 50287 51715 47399 47760 58808 47722 53488 47127 52282 53700 45687 17613 6968 6790 1917 3895 3310 22307 14775 2610 10147 0 82025 100491 92374 96765 87653 55609 
37130 54300 65560 56466 52457 57751 47025 53379 51147 61133 55099 54440 53072 52604 61176 53307 12329 14807 22971 17665 10539 21718 13654 19088 19071 27181 56387 57790 59323 56789 54661 62991 54257 52562 45197 60508 104359 95148 98721 92203 92888 94877 100660 96515 97333 92396 98213 94113 103221 97703 88806 33436 38687 26294 34346 33869 22764 40100 35488 39801 36228 31351 38294 60944 63366 63932 62648 59383 67062 68600 55640 55985 70949 65234 50656 38511 40975 46909 47397 39513 50564 43876 40574 49529 43913 99639 88993 88589 83942 78129 80554 83957 78462 84636 78114 82025 0 18466 12096 14740 7483 37130 
52016 72767 84026 74932 70923 72638 65491 71845 66034 79599 69986 72906 71539 71070 79642 70355 30795 33273 41438 36131 29005 40184 32120 37554 37537 45647 71273 72676 74210 71675 69548 77877 69144 67448 60084 75394 119246 110034 113608 107089 107775 109764 115547 111401 112220 107282 113099 109000 118108 112589 103692 29596 36107 33135 38373 42790 25157 29874 33984 25094 25428 21694 29727 75831 78252 78818 77534 74269 81948 83486 70527 70871 85835 80121 65543 53398 55861 61795 62283 54400 65451 58763 55461 64416 58799 118105 107460 107055 102408 96595 99020 102423 96928 103102 96580 100491 18466 0 8117 6135 12837 52016 
49227 64649 75909 66815 62806 69848 57374 63728 63244 71482 67196 64789 63421 62953 71525 65404 22678 25156 33320 28014 20887 32067 24003 29437 29420 37530 68484 69887 71420 68886 66758 75088 66354 64659 57294 72605 116456 107245 110818 104300 104985 106974 112757 108612 109430 104493 110310 106210 115318 109800 100903 26806 33318 30345 35584 40000 22367 29751 31194 29452 25879 21002 27945 73041 75463 76029 74745 71480 79158 80697 67737 68082 83046 77331 62753 50608 53072 59006 59494 51610 62661 55973 52671 61626 56010 109987 99342 98938 94291 88478 90902 94306 88811 94984 88462 92374 12096 8117 0 4391 4720 49227 
45881 69041 80301 71206 67197 66502 61765 68120 61633 75873 65485 69180 67813 67345 75916 66629 27069 29547 37712 32405 25279 36458 28395 33828 33811 41922 65138 66541 68074 65540 63413 71742 63008 61313 53948 69259 113111 103899 107472 100954 101640 103628 109412 105266 106085 101147 106964 102865 111972 106454 97557 23460 29972 27000 32238 36655 19022 25360 27849 25061 21487 16610 23591 69695 72117 72683 71399 68134 75813 77351 64392 64736 79700 73985 59407 47262 49726 55660 56148 49043 59315 52627 49326 58281 52664 114379 103734 103330 98683 92869 95294 98698 93202 99376 92854 96765 14740 6135 4391 0 9111 45881 
44613 59929 71189 62094 58085 65234 52653 59008 58630 66761 62582 60068 58701 58233 66804 60790 17957 20435 28600 23293 16167 27346 19283 24716 24699 32810 63870 65273 66806 64272 62145 70474 61740 60045 52680 67991 111842 102631 106204 99686 100372 102360 108143 103998 104817 99879 105696 101596 110704 105186 96289 27808 33058 25732 30970 35387 17754 34472 29860 34173 30599 25722 32666 68427 70849 71415 70131 66866 74545 76083 63124 63468 78432 72717 58139 45994 48458 54392 54880 46996 58047 51359 48058 57013 51396 105267 94622 94218 89571 83757 86182 89586 84090 90264 83742 87653 7483 12837 4720 9111 0 44613 
0 27885 39145 30051 26042 23073 20609 26964 20477 34718 24329 28024 26657 26189 34761 25473 27662 42436 34068 35594 39371 42407 27910 33500 41491 35937 42082 49969 56520 38634 43583 48443 39712 41194 54501 48157 67229 58017 61591 55072 55758 57747 63530 59384 60203 55265 61082 56983 66091 60572 51675 59851 65102 52709 60762 60284 49179 66516 61904 66217 62643 57766 64709 23814 30794 26801 25518 22355 29931 31469 22703 21315 33818 28104 13526 3894 8210 9779 10266 7887 13434 8481 3444 12399 9922 73223 62578 62174 57527 51714 54138 57542 52046 58220 51698 55609 37130 52016 49227 45881 44613 0 
DEMAND_SECTION
1 0
2 -2
3 16
4 15
5 -7
6 19
7 12
8 -14
9 -3
10 -5
11 13
12 -14
13 -30
14 29
15 21
16 -25
17 -2
18 -6
19 -3
20 -14
21 -6
22 30
23 11
24 -19
25 -21
26 -12
27 -15
28 18
29 16
30 17
31 7
32 -8
33 22
34 17
35 -28
36 -23
37 23
38 -2
39 17
40 7
41 -2
42 -5
43 4
44 14
45 -29
46 -27
47 -5
48 -24
49 6
50 30
51 28
52 18
53 30
54 -17
55 13
56 1
57 26
58 23
59 -13
60 7
61 19
62 -20
63 17
64 2
65 6
66 28
67 29
68 2
69 -12
70 -22
71 -23
72 -10
73 25
74 -11
75 3
76 -26
77 29
78 15
79 20
80 -14
81 -21
82 29
83 -27
84 -21
85 7
86 -14
87 -3
88 -4
89 -6
90 6
91 14
92 -2
93 2
94 5
95 -19
96 -3
97 22
98 -6
99 -11
100 -23
101 26
102 0
DEPOT_SECTION
1
-1
TIME_WINDOW_SECTION
1 0 1440
2 240 318
3 737 803
4 420 498
5 172 235
6 581 646
7 446 514
8 246 324
9 512 584
10 151 227
11 697 768
12 405 484
13 277 346
14 696 758
15 560 625
16 366 431
17 477 555
18 739 827
19 212 292
20 646 725
21 633 697
22 204 290
23 551 611
24 512 575
25 891 974
26 273 338
27 957 1019
28 834 927
29 788 853
30 957 1021
31 886 959
32 940 1027
33 243 311
34 673 745
35 490 559
36 382 462
37 626 686
38 661 729
39 104 178
40 290 374
41 575 662
42 604 682
43 516 592
44 162 239
45 456 550
46 699 794
47 128 217
48 878 947
49 578 644
50 333 403
51 132 218
52 588 650
53 855 956
54 775 844
55 526 595
56 916 982
57 994 1063
58 808 881
59 968 1069
60 695 777
61 354 456
62 761 824
63 132 218
64 929 999
65 970 1032
66 103 165
67 265 327
68 590 661
69 640 710
70 586 653
71 233 306
72 292 354
73 334 401
74 945 1005
75 1006 1075
76 544 605
77 941 1006
78 257 319
79 842 907
80 991 1056
81 23 90
82 940 1000
83 140 200
84 752 813
85 615 680
86 720 820
87 529 625
88 120 205
89 327 387
90 184 276
91 763 842
92 596 660
93 715 780
94 852 934
95 467 529
96 912 1001
97 91 161
98 311 376
99 595 690
100 773 869
101 880 974
102 0 1440
SERVICE_TIME_SECTION
1 0
2 5
3 5
4 5
5 5
6 5
7 5
8 5
9 5
10 5
11 5
12 5
13 5
14 5
15 5
16 5
17 5
18 5
19 5
20 5
21 5
22 5
23 5
24 5
25 5
26 5
27 5
28 5
29 5
30 5
31 5
32 5
33 5
34 5
35 5
36 5
37 5
38 5
39 5
40 5
41 5
42 5
43 5
44 5
45 5
46 5
47 5
48 5
49 5
50 5
51 5
52 5
53 5
54 5
55 5
56 5
57 5
58 5
59 5
60 5
61 5
62 5
63 5
64 5
65 5
66 5
67 5
68 5
69 5
70 5
71 5
72 5
73 5
74 5
75 5
76 5
77 5
78 5
79 5
80 5
81 5
82 5
83 5
84 5
85 5
86 5
87 5
88 5
89 5
90 5
91 5
92 5
93 5
94 5
95 5
96 5
97 5
98 5
99 5
100 5
101 5
102 0
BACKHAUL_SECTION
2
5
8
9
10
12
13
16
17
18
19
20
21
24
25
26
27
32
35
36
38
41
42
45
46
47
48
54
59
62
69
70
71
72
74
76
80
81
83
84
86
87
88
89
92
95
96
98
99
100
EOF
