NAME : S042_N50_C_R50_ATTEMPT1
COMMENT : Iterative removal attempt
TYPE : CVRPTW
DIMENSION : 52
EDGE_WEIGHT_TYPE : EXPLICIT
EDGE_WEIGHT_FORMAT : FULL_MATRIX
CAPACITY : 200
VEHICLES : 5
EDGE_WEIGHT_SECTION
0 27885 39145 30051 26042 23073 20609 26964 20477 34718 24329 28024 26657 26189 34761 25473 27662 42436 34068 35594 39371 42407 27910 33500 41491 35937 42082 49969 56520 38634 43583 48443 39712 41194 54501 48157 67229 58017 61591 55072 55758 57747 63530 59384 60203 55265 61082 56983 66091 60572 51675 0 
27885 0 11259 4048 1843 8621 7275 5308 7408 6832 5969 2621 6106 1696 9815 4176 41971 54437 46068 47595 51371 54407 40646 45500 53491 47938 69968 77854 84405 66520 71469 76329 67597 69080 82386 76043 55229 46017 49591 43072 43758 45746 51530 47384 48203 43265 49082 44983 54090 48572 39675 27885 
39145 11259 0 9094 13103 16071 18535 12180 18667 4427 14815 11120 12487 12955 13063 13671 53231 57684 49315 50842 55021 57655 51905 48747 56738 51185 81227 89114 95665 77780 82729 87589 78857 80339 93646 87303 51982 42770 46343 39825 40511 42499 48283 44137 44956 40018 45835 41736 50843 45325 36428 39145 
30051 4048 9094 0 4057 12669 9441 3086 9573 10813 10017 2026 3393 3861 5767 8224 44137 50389 42020 43547 47323 50359 42811 41452 49443 43889 72133 80020 86571 68685 73634 78494 69763 71245 84552 78208 59277 50065 53639 47120 47806 49795 55578 51432 52251 47313 53130 49031 58139 52620 43723 30051 
26042 1843 13103 4057 0 8611 5432 5317 5564 8676 5959 2630 6116 1245 9825 4167 40128 54446 46077 47604 51380 54417 39919 45509 53500 47947 68124 76011 82562 64676 69625 74485 65754 67236 80543 74199 55219 46008 49581 43063 43748 45737 51520 47375 48194 43256 49073 44973 54081 48563 39666 26042 
23073 8621 16071 12669 8611 0 13271 13929 6603 11644 2651 11242 14727 9856 18436 4444 48283 63058 54689 56216 59992 63029 48531 54121 62112 56559 65156 73042 79593 61708 66657 71517 62785 64268 77574 71231 46608 37396 40970 34451 35137 37125 42909 38763 39582 34644 40461 36362 45469 39951 31054 23073 
20609 7275 18535 9441 5432 13271 0 6354 6667 14108 10619 7414 6047 5579 14151 8827 35012 49786 41418 42944 46721 49757 35259 40849 48840 43287 62692 70579 77129 59244 64193 69053 60322 61804 75111 68767 59879 50668 54241 47722 48408 50397 56180 52035 52853 47916 53733 49633 58741 53222 44325 20609 
26964 5308 12180 3086 5317 13929 6354 0 7325 12074 11277 2687 798 4072 7796 9485 41050 49128 40760 42286 46063 49099 39724 40192 48183 42629 69047 76933 83484 65599 70548 75408 66676 68158 81465 75122 60537 51325 54899 48380 49066 51055 56838 52693 53511 48573 54391 50291 59399 53880 44983 26964 
20477 7408 18667 9573 5564 6603 6667 7325 0 14240 3951 7547 8123 5711 14283 4996 41679 56454 48085 49612 53388 56425 41927 47517 55508 49955 62560 70446 76997 59112 64061 68921 60189 61672 74978 68635 53212 44000 47573 41055 41741 43729 49512 45367 46186 41248 47065 42966 52073 46555 37658 20477 
34718 6832 4427 10813 8676 11644 14108 12074 14240 0 10388 9386 12872 8528 16581 9244 48804 61202 52834 54360 58137 61173 47478 52266 60257 54703 76800 84687 91238 73353 78301 83162 74430 75912 89219 82875 48463 39251 42825 36306 36992 38981 44764 40619 41437 36499 42317 38217 47325 41806 32909 34718 
24329 5969 14815 10017 5959 2651 10619 11277 3951 10388 0 8590 12075 7204 15785 1792 45631 60406 52037 53564 57340 60377 45879 51469 59460 53907 66412 74299 80849 62964 67913 72773 64041 65524 78831 72487 49260 40048 43621 37103 37789 39777 45561 41415 42234 37296 43113 39014 48121 42603 33706 24329 
28024 2621 11120 2026 2630 11242 7414 2687 7547 9386 8590 0 3485 1835 7194 6798 42110 51815 43447 44973 48750 51786 40785 42879 50870 45316 70107 77994 84544 66659 71608 76468 67737 69219 82526 76182 57850 48638 52212 45693 46379 48368 54151 50005 50824 45886 51703 47604 56712 51193 42296 28024 
26657 6106 12487 3393 6116 14727 6047 798 8123 12872 12075 3485 0 4870 8103 10283 40743 48330 39961 41488 45264 48301 39418 39393 47384 41831 68740 76626 83177 65292 70241 75101 66369 67852 81158 74815 61335 52124 55697 49179 49864 51853 57636 53491 54310 49372 55189 51089 60197 54679 45782 26657 
26189 1696 12955 3861 1245 9856 5579 4072 5711 8528 7204 1835 4870 0 8580 5412 40275 53201 44832 46359 50135 53172 38949 44264 52255 46702 68272 76158 82709 64824 69773 74633 65901 67383 80690 74347 56464 47253 50826 44308 44994 46982 52765 48620 49439 44501 50318 46218 55326 49808 40911 26189 
34761 9815 13063 5767 9825 18436 14151 7796 14283 16581 15785 7194 8103 8580 0 13992 48847 46369 38204 43510 50637 44592 47521 42087 43675 38122 76843 84730 91281 73395 78344 83204 74473 75955 89262 82918 65045 55833 59407 52888 53574 55562 61346 57200 58019 53081 58898 54799 63906 58388 49491 34761 
25473 4176 13671 8224 4167 4444 8827 9485 4996 9244 1792 6798 10283 5412 13992 0 43839 58614 50245 51772 55548 58584 44087 49677 57668 52114 67556 75443 81993 64108 69057 73917 65186 66668 79975 73631 51052 41840 45414 38895 39581 41570 47353 43207 44026 39088 44905 40806 49914 44395 35498 25473 
27662 41971 53231 44137 40128 48283 35012 41050 41679 48804 45631 42110 40743 40275 48847 43839 0 14774 10642 7932 11708 14745 1325 6759 13828 14852 46919 48322 49855 47321 45194 53523 44789 43094 40415 51040 94892 85680 89253 82735 83421 85409 91192 87047 87866 82928 88745 84646 93753 88235 79338 27662 
42436 54437 57684 50389 54446 63058 49786 49128 56454 61202 60406 51815 48330 53201 46369 58614 14774 0 8368 6842 4268 6911 14526 8936 4264 12374 61693 63096 64630 62095 59968 68297 59564 57868 50504 65814 109666 100454 104028 97509 98195 100184 105967 101821 102640 97702 103519 99420 108528 103009 94112 42436 
34068 46068 49315 42020 46077 54689 41418 40760 48085 52834 52037 43447 39961 44832 38204 50245 10642 8368 0 5306 12432 8339 9317 3883 7422 4209 53324 54728 56261 53727 51599 59929 51195 49500 51057 57446 101297 92086 95659 89140 89826 91815 97598 93453 94271 89334 95151 91051 100159 94641 85744 34068 
35594 47595 50842 43547 47604 56216 42944 42286 49612 54360 53564 44973 41488 46359 43510 51772 7932 6842 5306 0 7126 6812 7684 2094 5896 9516 54851 56254 57788 55253 53126 61455 52722 51026 45751 58972 102824 93612 97186 90667 91353 93342 99125 94979 95798 90860 96677 92578 101686 96167 87270 35594 
39371 51371 55021 47323 51380 59992 46721 46063 53388 58137 57340 48750 45264 50135 50637 55548 11708 4268 12432 7126 0 11179 11461 8549 8532 16642 58628 60031 61564 59030 56903 65232 56498 54803 47438 62749 106600 97389 100962 94444 95129 97118 102901 98756 99575 94637 100454 96354 105462 99944 91047 39371 
42407 54407 57655 50359 54417 63029 49757 49099 56425 61173 60377 51786 48301 53172 44592 58584 14745 6911 8339 6812 11179 0 14497 8907 2646 6469 61664 63067 64601 62066 59939 68268 59534 57839 50474 65785 109637 100425 103999 97480 98166 100154 105938 101792 102611 97673 103490 99391 108498 102980 94083 42407 
27910 40646 51905 42811 39919 48531 35259 39724 41927 47478 45879 40785 39418 38949 47521 44087 1325 14526 9317 7684 11461 14497 0 5589 13581 13526 47166 48569 50103 47569 45441 53770 45037 43341 41740 51288 95139 85927 89501 82982 83668 85657 91440 87295 88113 83175 88993 84893 94001 88482 79585 27910 
33500 45500 48747 41452 45509 54121 40849 40192 47517 52266 51469 42879 39393 44264 42087 49677 6759 8936 3883 2094 8549 8907 5589 0 7991 8093 52756 54159 55693 53158 51031 59360 50627 48931 47174 56878 100729 91517 95091 88572 89258 91247 97030 92885 93703 88765 94583 90483 99591 94072 85175 33500 
41491 53491 56738 49443 53500 62112 48840 48183 55508 60257 59460 50870 47384 52255 43675 57668 13828 4264 7422 5896 8532 2646 13581 7991 0 8110 60747 62150 63684 61150 59022 67351 58618 56923 49558 64869 108720 99508 103082 96563 97249 99238 105021 100876 101694 96756 102574 98474 107582 102063 93166 41491 
35937 47938 51185 43889 47947 56559 43287 42629 49955 54703 53907 45316 41831 46702 38122 52114 14852 12374 4209 9516 16642 6469 13526 8093 8110 0 55194 56597 58131 55596 53469 61798 53065 51369 55267 59315 103167 93955 97529 91010 91696 93685 99468 95322 96141 91203 97020 92921 102029 96510 87613 35937 
42082 69968 81227 72133 68124 65156 62692 69047 62560 76800 66412 70107 68740 68272 76843 67556 46919 61693 53324 54851 58628 61664 47166 52756 60747 55194 0 7886 14437 3447 1725 6604 2370 3824 12418 6075 60038 50958 61176 56133 60462 52081 48777 58428 55282 48855 51619 57170 64442 56932 48418 42082 
49969 77854 89114 80020 76011 73042 70579 76933 70446 84687 74299 77994 76626 76158 84730 75443 48322 63096 54728 56254 60031 63067 48569 54159 62150 56597 7886 0 6550 11334 6385 5201 10257 8774 12592 2718 67924 58845 69063 64020 68349 59967 56663 66315 63168 56742 59506 65057 72329 64818 56305 49969 
56520 84405 95665 86571 82562 79593 77129 83484 76997 91238 80849 84544 83177 82709 91281 81993 49855 64630 56261 57788 61564 64601 50103 55693 63684 58131 14437 6550 0 17885 12936 8076 16807 15325 14126 8362 74475 65396 75613 70571 74900 66518 63214 72866 69719 63293 66057 71608 78880 71369 62856 56520 
38634 66520 77780 68685 64676 61708 59244 65599 59112 73353 62964 66659 65292 64824 73395 64108 47321 62095 53727 55253 59030 62066 47569 53158 61150 55596 3447 11334 17885 0 4948 9808 2531 4227 15866 9522 56590 47511 57728 52686 57014 48633 45329 54980 51834 45408 48172 53723 60995 53484 44970 38634 
43583 71469 82729 73634 69625 66657 64193 70548 64061 78301 67913 71608 70241 69773 78344 69057 45194 59968 51599 53126 56903 59939 45441 51031 59022 53469 1725 6385 12936 4948 0 8329 3871 2389 10917 5846 61539 52460 62677 57635 61963 53582 50278 59929 56783 50356 53121 58672 65944 58433 49919 43583 
48443 76329 87589 78494 74485 71517 69053 75408 68921 83162 72773 76468 75101 74633 83204 73917 53523 68297 59929 61455 65232 68268 53770 59360 67351 61798 6604 5201 8076 9808 8329 0 8733 10428 17793 2482 66399 57320 67537 62495 66823 58442 55138 64789 61643 55217 57981 63532 70804 63293 54779 48443 
39712 67597 78857 69763 65754 62785 60322 66676 60189 74430 64041 67737 66369 65901 74473 65186 44789 59564 51195 52722 56498 59534 45037 50627 58618 53065 2370 10257 16807 2531 3871 8733 0 1695 14789 8445 57667 48588 58806 53763 58092 49710 46406 56058 52911 46485 49249 54800 62072 54561 46048 39712 
41194 69080 80339 71245 67236 64268 61804 68158 61672 75912 65524 69219 67852 67383 75955 66668 43094 57868 49500 51026 54803 57839 43341 48931 56923 51369 3824 8774 15325 4227 2389 10428 1695 0 13306 7946 59150 50070 60288 55245 59574 51193 48098 57540 54393 47967 50731 56282 63554 56044 47530 41194 
54501 82386 93646 84552 80543 77574 75111 81465 74978 89219 78831 82526 81158 80690 89262 79975 40415 50504 51057 45751 47438 50474 41740 47174 49558 55267 12418 12592 14126 15866 10917 17793 14789 13306 0 15310 72457 63377 73595 68552 72881 64499 61196 70847 67700 61274 64038 69589 76861 69350 60837 54501 
48157 76043 87303 78208 74199 71231 68767 75122 68635 82875 72487 76182 74815 74347 82918 73631 51040 65814 57446 58972 62749 65785 51288 56878 64869 59315 6075 2718 8362 9522 5846 2482 8445 7946 15310 0 66113 57033 67251 62209 66537 58156 54852 64503 61357 54930 57695 63246 70518 63007 54493 48157 
67229 55229 51982 59277 55219 46608 59879 60537 53212 48463 49260 57850 61335 56464 65045 51052 94892 109666 101297 102824 106600 109637 95139 100729 108720 103167 60038 67924 74475 56590 61539 66399 57667 59150 72457 66113 0 9211 5638 12156 11470 9482 11260 7844 7025 11963 8418 10246 4404 6656 15553 67229 
58017 46017 42770 50065 46008 37396 50668 51325 44000 39251 40048 48638 52124 47253 55833 41840 85680 100454 92086 93612 97389 100425 85927 91517 99508 93955 50958 58845 65396 47511 52460 57320 48588 50070 63377 57033 9211 0 10217 5175 9503 1122 5512 7469 4323 2751 3065 6212 13484 5973 6342 58017 
61591 49591 46343 53639 49581 40970 54241 54899 47573 42825 43621 52212 55697 50826 59407 45414 89253 104028 95659 97186 100962 103999 89501 95091 103082 97529 61176 69063 75613 57728 62677 67537 58806 60288 73595 67251 5638 10217 0 6518 5832 9095 12399 2747 5894 12320 9556 4607 4499 4244 12757 61591 
55072 43072 39825 47120 43063 34451 47722 48380 41055 36306 37103 45693 49179 44308 52888 38895 82735 97509 89140 90667 94444 97480 82982 88572 96563 91010 56133 64020 70571 52686 57635 62495 53763 55245 68552 62209 12156 5175 6518 0 4328 4052 8457 4312 5130 7278 6010 1910 11018 5500 7715 55072 
55758 43758 40511 47806 43748 35137 48408 49066 41741 36992 37789 46379 49864 44994 53574 39581 83421 98195 89826 91353 95129 98166 83668 89258 97249 91696 60462 68349 74900 57014 61963 66823 58092 59574 72881 66537 11470 9503 5832 4328 0 8381 11685 3626 5180 11606 8842 3291 10332 4814 12044 55758 
57747 45746 42499 49795 45737 37125 50397 51055 43729 38981 39777 48368 51853 46982 55562 41570 85409 100184 91815 93342 97118 100154 85657 91247 99238 93685 52081 59967 66518 48633 53582 58442 49710 51193 64499 58156 9482 1122 9095 4052 8381 0 5783 6347 3200 3225 3335 5089 12361 4851 6071 57747 
63530 51530 48283 55578 51520 42909 56180 56838 49512 44764 45561 54151 57636 52765 61346 47353 91192 105967 97598 99125 102901 105938 91440 97030 105021 99468 48777 56663 63214 45329 50278 55138 46406 48098 61196 54852 11260 5512 12399 8457 11685 5783 0 9651 6504 8264 2842 8393 15665 8154 11854 63530 
59384 47384 44137 51432 47375 38763 52035 52693 45367 40619 41415 50005 53491 48620 57200 43207 87047 101821 93453 94979 98756 101792 87295 92885 100876 95322 58428 66315 72866 54980 59929 64789 56058 57540 70847 64503 7844 7469 2747 4312 3626 6347 9651 0 3146 9572 6808 2401 6706 1496 10009 59384 
60203 48203 44956 52251 48194 39582 52853 53511 46186 41437 42234 50824 54310 49439 58019 44026 87866 102640 94271 95798 99575 102611 88113 93703 101694 96141 55282 63168 69719 51834 56783 61643 52911 54393 67700 61357 7025 4323 5894 5130 5180 3200 6504 3146 0 6426 3662 3220 9160 1650 8527 60203 
55265 43265 40018 47313 43256 34644 47916 48573 41248 36499 37296 45886 49372 44501 53081 39088 82928 97702 89334 90860 94637 97673 83175 88765 96756 91203 48855 56742 63293 45408 50356 55217 46485 47967 61274 54930 11963 2751 12320 7278 11606 3225 8264 9572 6426 0 5817 8315 15587 8076 3590 55265 
61082 49082 45835 53130 49073 40461 53733 54391 47065 42317 43113 51703 55189 50318 58898 44905 88745 103519 95151 96677 100454 103490 88993 94583 102574 97020 51619 59506 66057 48172 53121 57981 49249 50731 64038 57695 8418 3065 9556 6010 8842 3335 2842 6808 3662 5817 0 5551 12823 5312 9407 61082 
56983 44983 41736 49031 44973 36362 49633 50291 42966 38217 39014 47604 51089 46218 54799 40806 84646 99420 91051 92578 96354 99391 84893 90483 98474 92921 57170 65057 71608 53723 58672 63532 54800 56282 69589 63246 10246 6212 4607 1910 3291 5089 8393 2401 3220 8315 5551 0 9107 3589 8752 56983 
66091 54090 50843 58139 54081 45469 58741 59399 52073 47325 48121 56712 60197 55326 63906 49914 93753 108528 100159 101686 105462 108498 94001 99591 107582 102029 64442 72329 78880 60995 65944 70804 62072 63554 76861 70518 4404 13484 4499 11018 10332 12361 15665 6706 9160 15587 12823 9107 0 7510 16024 66091 
60572 48572 45325 52620 48563 39951 53222 53880 46555 41806 42603 51193 54679 49808 58388 44395 88235 103009 94641 96167 99944 102980 88482 94072 102063 96510 56932 64818 71369 53484 58433 63293 54561 56044 69350 63007 6656 5973 4244 5500 4814 4851 8154 1496 1650 8076 5312 3589 7510 0 8897 60572 
51675 39675 36428 43723 39666 31054 44325 44983 37658 32909 33706 42296 45782 40911 49491 35498 79338 94112 85744 87270 91047 94083 79585 85175 93166 87613 48418 56305 62856 44970 49919 54779 46048 47530 60837 54493 15553 6342 12757 7715 12044 6071 11854 10009 8527 3590 9407 8752 16024 8897 0 51675 
0 27885 39145 30051 26042 23073 20609 26964 20477 34718 24329 28024 26657 26189 34761 25473 27662 42436 34068 35594 39371 42407 27910 33500 41491 35937 42082 49969 56520 38634 43583 48443 39712 41194 54501 48157 67229 58017 61591 55072 55758 57747 63530 59384 60203 55265 61082 56983 66091 60572 51675 0 
DEMAND_SECTION
1 0
2 -11
3 7
4 -23
5 -3
6 9
7 -25
8 9
9 -28
10 -7
11 9
12 18
13 25
14 -29
15 -28
16 -2
17 16
18 15
19 -7
20 19
21 -19
22 17
23 -3
24 26
25 -18
26 17
27 1
28 -2
29 -10
30 6
31 -2
32 25
33 -3
34 17
35 -6
36 -1
37 -20
38 12
39 -21
40 19
41 16
42 -13
43 -15
44 17
45 -24
46 -8
47 22
48 17
49 3
50 8
51 23
52 0
DEPOT_SECTION
1
-1
TIME_WINDOW_SECTION
1 0 1440
2 572 648
3 898 967
4 720 781
5 786 864
6 262 324
7 470 542
8 393 457
9 716 786
10 632 696
11 273 342
12 997 1069
13 246 311
14 789 853
15 819 888
16 240 318
17 733 798
18 429 515
19 178 241
20 584 650
21 460 535
22 259 347
23 515 590
24 146 219
25 701 777
26 410 493
27 293 370
28 705 769
29 574 644
30 376 444
31 487 575
32 743 837
33 221 306
34 649 733
35 638 704
36 215 307
37 572 632
38 527 591
39 894 989
40 291 360
41 958 1021
42 835 931
43 789 854
44 958 1024
45 888 965
46 940 1027
47 260 332
48 679 755
49 499 570
50 388 472
51 618 678
52 0 1440
SERVICE_TIME_SECTION
1 0
2 5
3 5
4 5
5 5
6 5
7 5
8 5
9 5
10 5
11 5
12 5
13 5
14 5
15 5
16 5
17 5
18 5
19 5
20 5
21 5
22 5
23 5
24 5
25 5
26 5
27 5
28 5
29 5
30 5
31 5
32 5
33 5
34 5
35 5
36 5
37 5
38 5
39 5
40 5
41 5
42 5
43 5
44 5
45 5
46 5
47 5
48 5
49 5
50 5
51 5
52 0
EOF
