NAME : S042_N50_C_R50_ATTEMPT19
COMMENT : Iterative removal attempt
TYPE : CVRPTW
DIMENSION : 34
EDGE_WEIGHT_TYPE : EXPLICIT
EDGE_WEIGHT_FORMAT : FULL_MATRIX
CAPACITY : 200
VEHICLES : 5
EDGE_WEIGHT_SECTION
0 27885 39145 26042 20609 20477 24329 28024 34761 25473 42436 39371 42407 27910 33500 41491 35937 42082 56520 43583 48443 39712 41194 48157 61591 55072 57747 60203 55265 61082 56983 66091 60572 0 
27885 0 11259 1843 7275 7408 5969 2621 9815 4176 54437 51371 54407 40646 45500 53491 47938 69968 84405 71469 76329 67597 69080 76043 49591 43072 45746 48203 43265 49082 44983 54090 48572 27885 
39145 11259 0 13103 18535 18667 14815 11120 13063 13671 57684 55021 57655 51905 48747 56738 51185 81227 95665 82729 87589 78857 80339 87303 46343 39825 42499 44956 40018 45835 41736 50843 45325 39145 
26042 1843 13103 0 5432 5564 5959 2630 9825 4167 54446 51380 54417 39919 45509 53500 47947 68124 82562 69625 74485 65754 67236 74199 49581 43063 45737 48194 43256 49073 44973 54081 48563 26042 
20609 7275 18535 5432 0 6667 10619 7414 14151 8827 49786 46721 49757 35259 40849 48840 43287 62692 77129 64193 69053 60322 61804 68767 54241 47722 50397 52853 47916 53733 49633 58741 53222 20609 
20477 7408 18667 5564 6667 0 3951 7547 14283 4996 56454 53388 56425 41927 47517 55508 49955 62560 76997 64061 68921 60189 61672 68635 47573 41055 43729 46186 41248 47065 42966 52073 46555 20477 
24329 5969 14815 5959 10619 3951 0 8590 15785 1792 60406 57340 60377 45879 51469 59460 53907 66412 80849 67913 72773 64041 65524 72487 43621 37103 39777 42234 37296 43113 39014 48121 42603 24329 
28024 2621 11120 2630 7414 7547 8590 0 7194 6798 51815 48750 51786 40785 42879 50870 45316 70107 84544 71608 76468 67737 69219 76182 52212 45693 48368 50824 45886 51703 47604 56712 51193 28024 
34761 9815 13063 9825 14151 14283 15785 7194 0 13992 46369 50637 44592 47521 42087 43675 38122 76843 91281 78344 83204 74473 75955 82918 59407 52888 55562 58019 53081 58898 54799 63906 58388 34761 
25473 4176 13671 4167 8827 4996 1792 6798 13992 0 58614 55548 58584 44087 49677 57668 52114 67556 81993 69057 73917 65186 66668 73631 45414 38895 41570 44026 39088 44905 40806 49914 44395 25473 
42436 54437 57684 54446 49786 56454 60406 51815 46369 58614 0 4268 6911 14526 8936 4264 12374 61693 64630 59968 68297 59564 57868 65814 104028 97509 100184 102640 97702 103519 99420 108528 103009 42436 
39371 51371 55021 51380 46721 53388 57340 48750 50637 55548 4268 0 11179 11461 8549 8532 16642 58628 61564 56903 65232 56498 54803 62749 100962 94444 97118 99575 94637 100454 96354 105462 99944 39371 
42407 54407 57655 54417 49757 56425 60377 51786 44592 58584 6911 11179 0 14497 8907 2646 6469 61664 64601 59939 68268 59534 57839 65785 103999 97480 100154 102611 97673 103490 99391 108498 102980 42407 
27910 40646 51905 39919 35259 41927 45879 40785 47521 44087 14526 11461 14497 0 5589 13581 13526 47166 50103 45441 53770 45037 43341 51288 89501 82982 85657 88113 83175 88993 84893 94001 88482 27910 
33500 45500 48747 45509 40849 47517 51469 42879 42087 49677 8936 8549 8907 5589 0 7991 8093 52756 55693 51031 59360 50627 48931 56878 95091 88572 91247 93703 88765 94583 90483 99591 94072 33500 
41491 53491 56738 53500 48840 55508 59460 50870 43675 57668 4264 8532 2646 13581 7991 0 8110 60747 63684 59022 67351 58618 56923 64869 103082 96563 99238 101694 96756 102574 98474 107582 102063 41491 
35937 47938 51185 47947 43287 49955 53907 45316 38122 52114 12374 16642 6469 13526 8093 8110 0 55194 58131 53469 61798 53065 51369 59315 97529 91010 93685 96141 91203 97020 92921 102029 96510 35937 
42082 69968 81227 68124 62692 62560 66412 70107 76843 67556 61693 58628 61664 47166 52756 60747 55194 0 14437 1725 6604 2370 3824 6075 61176 56133 52081 55282 48855 51619 57170 64442 56932 42082 
56520 84405 95665 82562 77129 76997 80849 84544 91281 81993 64630 61564 64601 50103 55693 63684 58131 14437 0 12936 8076 16807 15325 8362 75613 70571 66518 69719 63293 66057 71608 78880 71369 56520 
43583 71469 82729 69625 64193 64061 67913 71608 78344 69057 59968 56903 59939 45441 51031 59022 53469 1725 12936 0 8329 3871 2389 5846 62677 57635 53582 56783 50356 53121 58672 65944 58433 43583 
48443 76329 87589 74485 69053 68921 72773 76468 83204 73917 68297 65232 68268 53770 59360 67351 61798 6604 8076 8329 0 8733 10428 2482 67537 62495 58442 61643 55217 57981 63532 70804 63293 48443 
39712 67597 78857 65754 60322 60189 64041 67737 74473 65186 59564 56498 59534 45037 50627 58618 53065 2370 16807 3871 8733 0 1695 8445 58806 53763 49710 52911 46485 49249 54800 62072 54561 39712 
41194 69080 80339 67236 61804 61672 65524 69219 75955 66668 57868 54803 57839 43341 48931 56923 51369 3824 15325 2389 10428 1695 0 7946 60288 55245 51193 54393 47967 50731 56282 63554 56044 41194 
48157 76043 87303 74199 68767 68635 72487 76182 82918 73631 65814 62749 65785 51288 56878 64869 59315 6075 8362 5846 2482 8445 7946 0 67251 62209 58156 61357 54930 57695 63246 70518 63007 48157 
61591 49591 46343 49581 54241 47573 43621 52212 59407 45414 104028 100962 103999 89501 95091 103082 97529 61176 75613 62677 67537 58806 60288 67251 0 6518 9095 5894 12320 9556 4607 4499 4244 61591 
55072 43072 39825 43063 47722 41055 37103 45693 52888 38895 97509 94444 97480 82982 88572 96563 91010 56133 70571 57635 62495 53763 55245 62209 6518 0 4052 5130 7278 6010 1910 11018 5500 55072 
57747 45746 42499 45737 50397 43729 39777 48368 55562 41570 100184 97118 100154 85657 91247 99238 93685 52081 66518 53582 58442 49710 51193 58156 9095 4052 0 3200 3225 3335 5089 12361 4851 57747 
60203 48203 44956 48194 52853 46186 42234 50824 58019 44026 102640 99575 102611 88113 93703 101694 96141 55282 69719 56783 61643 52911 54393 61357 5894 5130 3200 0 6426 3662 3220 9160 1650 60203 
55265 43265 40018 43256 47916 41248 37296 45886 53081 39088 97702 94637 97673 83175 88765 96756 91203 48855 63293 50356 55217 46485 47967 54930 12320 7278 3225 6426 0 5817 8315 15587 8076 55265 
61082 49082 45835 49073 53733 47065 43113 51703 58898 44905 103519 100454 103490 88993 94583 102574 97020 51619 66057 53121 57981 49249 50731 57695 9556 6010 3335 3662 5817 0 5551 12823 5312 61082 
56983 44983 41736 44973 49633 42966 39014 47604 54799 40806 99420 96354 99391 84893 90483 98474 92921 57170 71608 58672 63532 54800 56282 63246 4607 1910 5089 3220 8315 5551 0 9107 3589 56983 
66091 54090 50843 54081 58741 52073 48121 56712 63906 49914 108528 105462 108498 94001 99591 107582 102029 64442 78880 65944 70804 62072 63554 70518 4499 11018 12361 9160 15587 12823 9107 0 7510 66091 
60572 48572 45325 48563 53222 46555 42603 51193 58388 44395 103009 99944 102980 88482 94072 102063 96510 56932 71369 58433 63293 54561 56044 63007 4244 5500 4851 1650 8076 5312 3589 7510 0 60572 
0 27885 39145 26042 20609 20477 24329 28024 34761 25473 42436 39371 42407 27910 33500 41491 35937 42082 56520 43583 48443 39712 41194 48157 61591 55072 57747 60203 55265 61082 56983 66091 60572 0 
DEMAND_SECTION
1 0
2 -11
3 7
4 -3
5 -25
6 -28
7 9
8 18
9 -28
10 -2
11 15
12 -19
13 17
14 -3
15 26
16 -18
17 17
18 1
19 -10
20 -2
21 25
22 -3
23 17
24 -1
25 -21
26 19
27 -13
28 -24
29 -8
30 22
31 17
32 3
33 8
34 0
DEPOT_SECTION
1
-1
TIME_WINDOW_SECTION
1 0 1440
2 572 648
3 898 967
4 786 864
5 470 542
6 716 786
7 273 342
8 997 1069
9 819 888
10 240 318
11 429 515
12 460 535
13 259 347
14 515 590
15 146 219
16 701 777
17 410 493
18 293 370
19 574 644
20 487 575
21 743 837
22 221 306
23 649 733
24 215 307
25 894 989
26 291 360
27 835 931
28 888 965
29 940 1027
30 260 332
31 679 755
32 499 570
33 388 472
34 0 1440
SERVICE_TIME_SECTION
1 0
2 5
3 5
4 5
5 5
6 5
7 5
8 5
9 5
10 5
11 5
12 5
13 5
14 5
15 5
16 5
17 5
18 5
19 5
20 5
21 5
22 5
23 5
24 5
25 5
26 5
27 5
28 5
29 5
30 5
31 5
32 5
33 5
34 0
EOF
