NAME : S042_N10_R_R50
COMMENT : Mixed VRPBTW instance (bi-objective)
TYPE : CVRPTW
DIMENSION : 12
EDGE_WEIGHT_TYPE : EXPLICIT
EDGE_WEIGHT_FORMAT : FULL_MATRIX
CAPACITY : 200
VEHICLES : 2
EDGE_WEIGHT_SECTION
0 57617 33065 68798 80809 30918 94932 62010 63477 22051 27682 0 
57617 0 70950 101324 40099 46921 37315 119627 96002 49625 71689 57617 
33065 70950 0 101863 94142 24029 108266 48676 96542 50165 60747 33065 
68798 101324 101863 0 80811 99717 94934 73276 5321 51698 41116 68798 
80809 40099 94142 80811 0 70113 14123 142819 80651 58757 94880 80809 
30918 46921 24029 99717 70113 0 84236 72706 94395 48018 58601 30918 
94932 37315 108266 94934 14123 84236 0 156942 94774 72881 109004 94932 
62010 119627 48676 73276 142819 72706 156942 0 67955 84061 47938 62010 
63477 96002 96542 5321 80651 94395 94774 67955 0 46376 35794 63477 
22051 49625 50165 51698 58757 48018 72881 84061 46376 0 36123 22051 
27682 71689 60747 41116 94880 58601 109004 47938 35794 36123 0 27682 
0 57617 33065 68798 80809 30918 94932 62010 63477 22051 27682 0 
DEMAND_SECTION
1 0
2 28
3 1
4 23
5 12
6 6
7 20
8 6
9 4
10 9
11 18
12 0
DEPOT_SECTION
1
-1
BACKHAUL_SECTION
2
5
6
7
8
EOF
