NAME : S042_N50_C_R50_PARTIAL_15
COMMENT : PARTIAL VRPBTW (late customers only)
TYPE : CVRPTW
DIMENSION : 17
EDGE_WEIGHT_TYPE : EXPLICIT
EDGE_WEIGHT_FORMAT : FULL_MATRIX
CAPACITY : 200
VEHICLES : 5
EDGE_WEIGHT_SECTION
0 39145 30051 26042 28024 26189 34761 27662 48443 61591 55758 57747 63530 59384 60203 55265 0 
39145 0 9094 13103 11120 12955 13063 53231 87589 46343 40511 42499 48283 44137 44956 40018 39145 
30051 9094 0 4057 2026 3861 5767 44137 78494 53639 47806 49795 55578 51432 52251 47313 30051 
26042 13103 4057 0 2630 1245 9825 40128 74485 49581 43748 45737 51520 47375 48194 43256 26042 
28024 11120 2026 2630 0 1835 7194 42110 76468 52212 46379 48368 54151 50005 50824 45886 28024 
26189 12955 3861 1245 1835 0 8580 40275 74633 50826 44994 46982 52765 48620 49439 44501 26189 
34761 13063 5767 9825 7194 8580 0 48847 83204 59407 53574 55562 61346 57200 58019 53081 34761 
27662 53231 44137 40128 42110 40275 48847 0 53523 89253 83421 85409 91192 87047 87866 82928 27662 
48443 87589 78494 74485 76468 74633 83204 53523 0 67537 66823 58442 55138 64789 61643 55217 48443 
61591 46343 53639 49581 52212 50826 59407 89253 67537 0 5832 9095 12399 2747 5894 12320 61591 
55758 40511 47806 43748 46379 44994 53574 83421 66823 5832 0 8381 11685 3626 5180 11606 55758 
57747 42499 49795 45737 48368 46982 55562 85409 58442 9095 8381 0 5783 6347 3200 3225 57747 
63530 48283 55578 51520 54151 52765 61346 91192 55138 12399 11685 5783 0 9651 6504 8264 63530 
59384 44137 51432 47375 50005 48620 57200 87047 64789 2747 3626 6347 9651 0 3146 9572 59384 
60203 44956 52251 48194 50824 49439 58019 87866 61643 5894 5180 3200 6504 3146 0 6426 60203 
55265 40018 47313 43256 45886 44501 53081 82928 55217 12320 11606 3225 8264 9572 6426 0 55265 
0 39145 30051 26042 28024 26189 34761 27662 48443 61591 55758 57747 63530 59384 60203 55265 0 
DEMAND_SECTION
1 0
2 0
3 0
4 0
5 0
6 0
7 0
8 0
9 0
10 0
11 0
12 0
13 0
14 0
15 0
16 0
17 0
DEPOT_SECTION
1
-1
TIME_WINDOW_SECTION
1 0 1440
2 898 967
3 720 781
4 786 864
5 997 1069
6 789 853
7 819 888
8 733 798
9 743 837
10 894 989
11 958 1021
12 835 931
13 789 854
14 958 1024
15 888 965
16 940 1027
17 0 1440
SERVICE_TIME_SECTION
1 0
2 5
3 5
4 5
5 5
6 5
7 5
8 5
9 5
10 5
11 5
12 5
13 5
14 5
15 5
16 5
17 0
EOF
