NAME : S042_N10_RC_R50
COMMENT : Mixed VRPBTW instance (bi-objective)
TYPE : CVRPTW
DIMENSION : 12
EDGE_WEIGHT_TYPE : EXPLICIT
EDGE_WEIGHT_FORMAT : FULL_MATRIX
CAPACITY : 200
VEHICLES : 2
EDGE_WEIGHT_SECTION
0 27885 39145 30051 26042 23073 64305 31854 32568 62888 30550 0 
27885 0 11259 4048 1843 8621 76305 41909 41768 38714 18550 27885 
39145 11259 0 9094 13103 16071 79552 45156 53028 41961 29238 39145 
30051 4048 9094 0 4057 12669 72257 37860 43933 34666 22598 30051 
26042 1843 13103 4057 0 8611 76314 41918 39924 38724 18541 26042 
23073 8621 16071 12669 8611 0 84926 50530 36956 47335 13166 23073 
64305 76305 79552 72257 76314 84926 0 51120 96873 82154 94856 64305 
31854 41909 45156 37860 41918 50530 51120 0 62477 31033 60459 31854 
32568 41768 53028 43933 39924 36956 96873 62477 0 76771 23789 32568 
62888 38714 41961 34666 38724 47335 82154 31033 76771 0 57265 62888 
30550 18550 29238 22598 18541 13166 94856 60459 23789 57265 0 30550 
0 27885 39145 30051 26042 23073 64305 31854 32568 62888 30550 0 
DEMAND_SECTION
1 0
2 27
3 29
4 25
5 3
6 19
7 13
8 3
9 10
10 10
11 23
12 0
DEPOT_SECTION
1
-1
BACKHAUL_SECTION
4
5
6
7
11
EOF
