NAME : S042_N20_C_R50
COMMENT : CTDVRPTWB instance
TYPE : CVRPTW
DIMENSION : 22
EDGE_WEIGHT_TYPE : EXPLICIT
EDGE_WEIGHT_FORMAT : FULL_MATRIX
CAPACITY : 200
VEHICLES : 3
EDGE_WEIGHT_SECTION
0 27885 39145 30051 26042 23073 20609 26964 20477 34718 24329 28024 26657 26189 34761 25473 27662 42436 34068 35594 39371 0 
27885 0 11259 4048 1843 8621 7275 5308 7408 6832 5969 2621 6106 1696 9815 4176 41971 54437 46068 47595 51371 27885 
39145 11259 0 9094 13103 16071 18535 12180 18667 4427 14815 11120 12487 12955 13063 13671 53231 57684 49315 50842 55021 39145 
30051 4048 9094 0 4057 12669 9441 3086 9573 10813 10017 2026 3393 3861 5767 8224 44137 50389 42020 43547 47323 30051 
26042 1843 13103 4057 0 8611 5432 5317 5564 8676 5959 2630 6116 1245 9825 4167 40128 54446 46077 47604 51380 26042 
23073 8621 16071 12669 8611 0 13271 13929 6603 11644 2651 11242 14727 9856 18436 4444 48283 63058 54689 56216 59992 23073 
20609 7275 18535 9441 5432 13271 0 6354 6667 14108 10619 7414 6047 5579 14151 8827 35012 49786 41418 42944 46721 20609 
26964 5308 12180 3086 5317 13929 6354 0 7325 12074 11277 2687 798 4072 7796 9485 41050 49128 40760 42286 46063 26964 
20477 7408 18667 9573 5564 6603 6667 7325 0 14240 3951 7547 8123 5711 14283 4996 41679 56454 48085 49612 53388 20477 
34718 6832 4427 10813 8676 11644 14108 12074 14240 0 10388 9386 12872 8528 16581 9244 48804 61202 52834 54360 58137 34718 
24329 5969 14815 10017 5959 2651 10619 11277 3951 10388 0 8590 12075 7204 15785 1792 45631 60406 52037 53564 57340 24329 
28024 2621 11120 2026 2630 11242 7414 2687 7547 9386 8590 0 3485 1835 7194 6798 42110 51815 43447 44973 48750 28024 
26657 6106 12487 3393 6116 14727 6047 798 8123 12872 12075 3485 0 4870 8103 10283 40743 48330 39961 41488 45264 26657 
26189 1696 12955 3861 1245 9856 5579 4072 5711 8528 7204 1835 4870 0 8580 5412 40275 53201 44832 46359 50135 26189 
34761 9815 13063 5767 9825 18436 14151 7796 14283 16581 15785 7194 8103 8580 0 13992 48847 46369 38204 43510 50637 34761 
25473 4176 13671 8224 4167 4444 8827 9485 4996 9244 1792 6798 10283 5412 13992 0 43839 58614 50245 51772 55548 25473 
27662 41971 53231 44137 40128 48283 35012 41050 41679 48804 45631 42110 40743 40275 48847 43839 0 14774 10642 7932 11708 27662 
42436 54437 57684 50389 54446 63058 49786 49128 56454 61202 60406 51815 48330 53201 46369 58614 14774 0 8368 6842 4268 42436 
34068 46068 49315 42020 46077 54689 41418 40760 48085 52834 52037 43447 39961 44832 38204 50245 10642 8368 0 5306 12432 34068 
35594 47595 50842 43547 47604 56216 42944 42286 49612 54360 53564 44973 41488 46359 43510 51772 7932 6842 5306 0 7126 35594 
39371 51371 55021 47323 51380 59992 46721 46063 53388 58137 57340 48750 45264 50135 50637 55548 11708 4268 12432 7126 0 39371 
0 27885 39145 30051 26042 23073 20609 26964 20477 34718 24329 28024 26657 26189 34761 25473 27662 42436 34068 35594 39371 0 
DEMAND_SECTION
1 0
2 23
3 19
4 25
5 -20
6 25
7 -27
8 -22
9 -13
10 3
11 -11
12 -24
13 -23
14 -3
15 9
16 -25
17 9
18 -28
19 24
20 9
21 18
22 0
DEPOT_SECTION
1
-1
TIME_WINDOW_SECTION
1 0 1440
2 581 655
3 571 637
4 306 383
5 818 891
6 306 370
7 356 417
8 382 448
9 819 890
10 166 249
11 572 648
12 896 963
13 719 780
14 786 864
15 265 328
16 476 552
17 395 460
18 722 801
19 629 693
20 279 349
21 997 1075
22 0 1440
SERVICE_TIME_SECTION
1 0
2 5
3 5
4 5
5 5
6 5
7 5
8 5
9 5
10 5
11 5
12 5
13 5
14 5
15 5
16 5
17 5
18 5
19 5
20 5
21 5
22 0
BACKHAUL_SECTION
5
7
8
9
11
12
13
14
16
18
EOF
