NAME : S043_N10_R_R50
COMMENT : Mixed VRPBTW instance (bi-objective)
TYPE : CVRPTW
DIMENSION : 12
EDGE_WEIGHT_TYPE : EXPLICIT
EDGE_WEIGHT_FORMAT : FULL_MATRIX
CAPACITY : 200
VEHICLES : 2
EDGE_WEIGHT_SECTION
0 49401 62601 53199 20725 70473 40709 68869 64561 27891 76656 0 
49401 0 38681 46215 61893 21072 47287 69154 113963 58290 27255 49401 
62601 38681 0 81229 83327 59753 82301 30473 75281 34710 65936 62601 
53199 46215 81229 0 65692 42351 12490 87497 117761 62089 26638 53199 
20725 61893 83327 65692 0 82966 53202 89594 52069 48616 89148 20725 
70473 21072 59753 42351 82966 0 43423 90227 135035 79362 15712 70473 
40709 47287 82301 12490 53202 43423 0 88569 105271 49599 35946 40709 
68869 69154 30473 87497 89594 90227 88569 0 77637 40977 96409 68869 
64561 113963 75281 117761 52069 135035 105271 77637 0 55672 141218 64561 
27891 58290 34710 62089 48616 79362 49599 40977 55672 0 85545 27891 
76656 27255 65936 26638 89148 15712 35946 96409 141218 85545 0 76656 
0 49401 62601 53199 20725 70473 40709 68869 64561 27891 76656 0 
DEMAND_SECTION
1 0
2 12
3 18
4 18
5 4
6 25
7 6
8 9
9 2
10 2
11 29
12 0
DEPOT_SECTION
1
-1
BACKHAUL_SECTION
2
4
5
6
7
EOF
