NAME : S043_N10_C_R50
COMMENT : Mixed VRPBTW instance (bi-objective)
TYPE : CVRPTW
DIMENSION : 12
EDGE_WEIGHT_TYPE : EXPLICIT
EDGE_WEIGHT_FORMAT : FULL_MATRIX
CAPACITY : 200
VEHICLES : 2
EDGE_WEIGHT_SECTION
0 54561 46308 53047 55906 66464 54867 51074 64087 56928 49016 0 
54561 0 11132 1723 8291 11903 2615 5129 9526 4384 5544 54561 
46308 11132 0 12856 9598 20156 8559 16262 17779 10620 16565 46308 
53047 1723 12856 0 10015 13417 4339 3406 11040 6108 4030 53047 
55906 8291 9598 10015 0 10558 5675 13421 8181 3906 13724 55906 
66464 11903 20156 13417 10558 0 11597 15389 2597 9535 17447 66464 
54867 2615 8559 4339 5675 11597 0 7745 9220 2061 8049 54867 
51074 5129 16262 3406 13421 15389 7745 0 13012 9514 2058 51074 
64087 9526 17779 11040 8181 2597 9220 13012 0 7158 15070 64087 
56928 4384 10620 6108 3906 9535 2061 9514 7158 0 9818 56928 
49016 5544 16565 4030 13724 17447 8049 2058 15070 9818 0 49016 
0 54561 46308 53047 55906 66464 54867 51074 64087 56928 49016 0 
DEMAND_SECTION
1 0
2 12
3 18
4 18
5 27
6 6
7 6
8 22
9 29
10 2
11 29
12 0
DEPOT_SECTION
1
-1
BACKHAUL_SECTION
2
4
7
8
9
EOF
