NAME : S043_N10_RC_R50
COMMENT : Mixed VRPBTW instance (bi-objective)
TYPE : CVRPTW
DIMENSION : 12
EDGE_WEIGHT_TYPE : EXPLICIT
EDGE_WEIGHT_FORMAT : FULL_MATRIX
CAPACITY : 200
VEHICLES : 2
EDGE_WEIGHT_SECTION
0 54561 46308 53047 55906 66464 79907 62457 65825 49683 43057 0 
54561 0 11132 1723 8291 11903 84471 7895 61261 55897 97067 54561 
46308 11132 0 12856 9598 20156 95603 18173 50129 65379 88814 46308 
53047 1723 12856 0 10015 13417 82747 9410 62985 54383 95552 53047 
55906 8291 9598 10015 0 10558 92762 15332 52970 62538 98412 55906 
66464 11903 20156 13417 10558 0 92782 15351 52950 67800 108970 66464 
79907 84471 95603 82747 92762 92782 0 82004 145732 30224 122965 79907 
62457 7895 18173 9410 15332 15351 82004 0 68302 63793 104963 62457 
65825 61261 50129 62985 52970 52950 145732 68302 0 115508 63413 65825 
49683 55897 65379 54383 62538 67800 30224 63793 115508 0 92741 49683 
43057 97067 88814 95552 98412 108970 122965 104963 63413 92741 0 43057 
0 54561 46308 53047 55906 66464 79907 62457 65825 49683 43057 0 
DEMAND_SECTION
1 0
2 16
3 28
4 21
5 11
6 25
7 26
8 18
9 23
10 6
11 15
12 0
DEPOT_SECTION
1
-1
BACKHAUL_SECTION
2
5
7
8
9
EOF
