NAME : S044_N10_C_R50
COMMENT : Mixed VRPBTW instance (bi-objective)
TYPE : CVRPTW
DIMENSION : 12
EDGE_WEIGHT_TYPE : EXPLICIT
EDGE_WEIGHT_FORMAT : FULL_MATRIX
CAPACITY : 200
VEHICLES : 2
EDGE_WEIGHT_SECTION
0 45976 35560 41657 32141 31440 27417 29322 39283 42714 28931 0 
45976 0 11297 9220 13835 14536 18559 16654 6693 3262 17045 45976 
35560 11297 0 20518 14745 8157 10421 10369 16506 11196 8850 35560 
41657 9220 20518 0 9515 12360 14240 12334 4011 9322 12726 41657 
32141 13835 14745 9515 0 6587 4724 4375 7142 10573 5895 32141 
31440 14536 8157 12360 6587 0 4023 2211 8348 11274 2509 31440 
27417 18559 10421 14240 4724 4023 0 1905 11866 15297 1570 27417 
29322 16654 10369 12334 4375 2211 1905 0 9961 13391 1519 29322 
39283 6693 16506 4011 7142 8348 11866 9961 0 5310 10352 39283 
42714 3262 11196 9322 10573 11274 15297 13391 5310 0 13783 42714 
28931 17045 8850 12726 5895 2509 1570 1519 10352 13783 0 28931 
0 45976 35560 41657 32141 31440 27417 29322 39283 42714 28931 0 
DEMAND_SECTION
1 0
2 6
3 21
4 13
5 12
6 11
7 19
8 27
9 10
10 15
11 26
12 0
DEPOT_SECTION
1
-1
BACKHAUL_SECTION
3
6
8
10
11
EOF
