NAME : S044_N10_RC_R50
COMMENT : Mixed VRPBTW instance (bi-objective)
TYPE : CVRPTW
DIMENSION : 12
EDGE_WEIGHT_TYPE : EXPLICIT
EDGE_WEIGHT_FORMAT : FULL_MATRIX
CAPACITY : 200
VEHICLES : 2
EDGE_WEIGHT_SECTION
0 45976 35560 41657 32141 31440 43101 41483 34360 37758 26598 0 
45976 0 11297 9220 13835 14536 51129 49510 42387 83735 25066 45976 
35560 11297 0 20518 14745 8157 39831 38212 31090 73318 13769 35560 
41657 9220 20518 0 9515 12360 60349 58731 51608 79415 34287 41657 
32141 13835 14745 9515 0 6587 54577 52958 45835 69899 28514 32141 
31440 14536 8157 12360 6587 0 47989 46370 39248 69198 21927 31440 
43101 51129 39831 60349 54577 47989 0 1618 11528 63492 26062 43101 
41483 49510 38212 58731 52958 46370 1618 0 11154 63119 24443 41483 
34360 42387 31090 51608 45835 39248 11528 11154 0 51964 17321 34360 
37758 83735 73318 79415 69899 69198 63492 63119 51964 0 64356 37758 
26598 25066 13769 34287 28514 21927 26062 24443 17321 64356 0 26598 
0 45976 35560 41657 32141 31440 43101 41483 34360 37758 26598 0 
DEMAND_SECTION
1 0
2 1
3 21
4 30
5 13
6 16
7 19
8 28
9 1
10 22
11 11
12 0
DEPOT_SECTION
1
-1
BACKHAUL_SECTION
2
4
7
8
9
EOF
