NAME : S044_N10_R_R50
COMMENT : Mixed VRPBTW instance (bi-objective)
TYPE : CVRPTW
DIMENSION : 12
EDGE_WEIGHT_TYPE : EXPLICIT
EDGE_WEIGHT_FORMAT : FULL_MATRIX
CAPACITY : 200
VEHICLES : 2
EDGE_WEIGHT_SECTION
0 73004 38413 24992 19714 22005 50390 45888 73957 82517 43258 0 
73004 0 34590 97997 74533 93029 47750 41585 146961 88553 29746 73004 
38413 34590 0 63406 39943 58438 31200 56402 112371 72003 24490 38413 
24992 97997 63406 0 23463 25150 75383 56411 48964 85662 68251 24992 
19714 74533 39943 23463 0 41719 61429 32948 72428 102232 44787 19714 
22005 93029 58438 25150 41719 0 70415 67893 53932 60512 63283 22005 
50390 47750 31200 75383 61429 70415 0 87603 124347 44237 55691 50390 
45888 41585 56402 56411 32948 67893 87603 0 105376 128405 31912 45888 
73957 146961 112371 48964 72428 53932 124347 105376 0 80109 117215 73957 
82517 88553 72003 85662 102232 60512 44237 128405 80109 0 96493 82517 
43258 29746 24490 68251 44787 63283 55691 31912 117215 96493 0 43258 
0 73004 38413 24992 19714 22005 50390 45888 73957 82517 43258 0 
DEMAND_SECTION
1 0
2 6
3 21
4 13
5 12
6 11
7 19
8 27
9 10
10 15
11 26
12 0
DEPOT_SECTION
1
-1
BACKHAUL_SECTION
3
6
8
10
11
EOF
