NAME : S045_N10_RC_R50
COMMENT : Mixed VRPBTW instance (bi-objective)
TYPE : CVRPTW
DIMENSION : 12
EDGE_WEIGHT_TYPE : EXPLICIT
EDGE_WEIGHT_FORMAT : FULL_MATRIX
CAPACITY : 200
VEHICLES : 2
EDGE_WEIGHT_SECTION
0 73187 60048 52396 56738 60399 91364 78260 38986 39043 57872 0 
73187 0 13139 20790 16449 14401 115039 32245 34201 83338 131060 73187 
60048 13139 0 7651 5753 13752 114390 31596 21062 70198 117920 60048 
52396 20790 7651 0 4341 8002 107574 25863 13410 62547 110269 52396 
56738 16449 5753 4341 0 7999 108637 25843 17751 66888 114610 56738 
60399 14401 13752 8002 7999 0 100637 17861 21413 70549 118271 60399 
91364 115039 114390 107574 108637 100637 0 86886 113186 130407 112356 91364 
78260 32245 31596 25863 25843 17861 86886 0 39274 88411 136133 78260 
38986 34201 21062 13410 17751 21413 113186 39274 0 49136 96858 38986 
39043 83338 70198 62547 66888 70549 130407 88411 49136 0 47721 39043 
57872 131060 117920 110269 114610 118271 112356 136133 96858 47721 0 57872 
0 73187 60048 52396 56738 60399 91364 78260 38986 39043 57872 0 
DEMAND_SECTION
1 0
2 4
3 27
4 9
5 14
6 7
7 26
8 23
9 27
10 11
11 10
12 0
DEPOT_SECTION
1
-1
BACKHAUL_SECTION
3
6
7
8
9
EOF
