NAME : S045_N10_R_R50
COMMENT : Mixed VRPBTW instance (bi-objective)
TYPE : CVRPTW
DIMENSION : 12
EDGE_WEIGHT_TYPE : EXPLICIT
EDGE_WEIGHT_FORMAT : FULL_MATRIX
CAPACITY : 200
VEHICLES : 2
EDGE_WEIGHT_SECTION
0 53855 64126 8272 78815 51144 50628 52037 33562 64907 26978 0 
53855 0 117981 62127 132670 95090 23338 8090 63759 13653 80833 53855 
64126 117981 0 55854 31896 71559 114754 110233 54222 129033 37148 64126 
8272 62127 55854 0 70543 48310 58900 54870 36396 73179 18705 8272 
78815 132670 31896 70543 0 53149 129443 124922 68911 143722 51837 78815 
51144 95090 71559 48310 53149 0 76294 103181 84706 90572 66228 51144 
50628 23338 114754 58900 129443 76294 0 31429 60532 14278 77606 50628 
52037 8090 110233 54870 124922 103181 31429 0 56011 21743 73085 52037 
33562 63759 54222 36396 68911 84706 60532 56011 0 74810 18478 33562 
64907 13653 129033 73179 143722 90572 14278 21743 74810 0 91885 64907 
26978 80833 37148 18705 51837 66228 77606 73085 18478 91885 0 26978 
0 53855 64126 8272 78815 51144 50628 52037 33562 64907 26978 0 
DEMAND_SECTION
1 0
2 26
3 24
4 28
5 7
6 6
7 14
8 2
9 6
10 17
11 11
12 0
DEPOT_SECTION
1
-1
BACKHAUL_SECTION
4
5
6
9
10
EOF
