NAME : S045_N10_C_R50
COMMENT : Mixed VRPBTW instance (bi-objective)
TYPE : CVRPTW
DIMENSION : 12
EDGE_WEIGHT_TYPE : EXPLICIT
EDGE_WEIGHT_FORMAT : FULL_MATRIX
CAPACITY : 200
VEHICLES : 2
EDGE_WEIGHT_SECTION
0 73187 60048 52396 56738 60399 66696 61647 64387 65716 58893 0 
73187 0 13139 20790 16449 14401 10323 11540 8800 7471 14293 73187 
60048 13139 0 7651 5753 13752 9674 8787 4339 5668 8493 60048 
52396 20790 7651 0 4341 8002 14299 9250 11990 13319 6496 52396 
56738 16449 5753 4341 0 7999 9958 4909 7649 8978 2740 56738 
60399 14401 13752 8002 7999 0 6297 4965 14802 12248 5259 60399 
66696 10323 9674 14299 9958 6297 0 5049 10724 8170 7802 66696 
61647 11540 8787 9250 4909 4965 5049 0 9836 7282 2753 61647 
64387 8800 4339 11990 7649 14802 10724 9836 0 2553 9542 64387 
65716 7471 5668 13319 8978 12248 8170 7282 2553 0 6988 65716 
58893 14293 8493 6496 2740 5259 7802 2753 9542 6988 0 58893 
0 73187 60048 52396 56738 60399 66696 61647 64387 65716 58893 0 
DEMAND_SECTION
1 0
2 27
3 21
4 5
5 26
6 8
7 5
8 6
9 24
10 28
11 5
12 0
DEPOT_SECTION
1
-1
BACKHAUL_SECTION
2
5
6
10
11
EOF
