NAME : S046_N10_R_R50
COMMENT : Mixed VRPBTW instance (bi-objective)
TYPE : CVRPTW
DIMENSION : 12
EDGE_WEIGHT_TYPE : EXPLICIT
EDGE_WEIGHT_FORMAT : FULL_MATRIX
CAPACITY : 200
VEHICLES : 2
EDGE_WEIGHT_SECTION
0 41866 50903 62416 51626 45771 42302 31936 54341 69803 23293 0 
41866 0 65803 77315 93493 30871 82582 46836 39441 84703 39606 41866 
50903 65803 0 24319 52338 96675 93205 18966 105244 18900 27609 50903 
62416 77315 24319 0 76658 108187 104718 30479 116757 34413 39122 62416 
51626 93493 52338 76658 0 88399 82102 68833 94141 42244 53886 51626 
45771 30871 96675 108187 88399 0 77488 77708 17697 115575 69065 45771 
42302 82582 93205 104718 82102 77488 0 74239 59790 112106 65596 42302 
31936 46836 18966 30479 68833 77708 74239 0 86278 37866 14946 31936 
54341 39441 105244 116757 94141 17697 59790 86278 0 124144 77635 54341 
69803 84703 18900 34413 42244 115575 112106 37866 124144 0 46509 69803 
23293 39606 27609 39122 53886 69065 65596 14946 77635 46509 0 23293 
0 41866 50903 62416 51626 45771 42302 31936 54341 69803 23293 0 
DEMAND_SECTION
1 0
2 21
3 26
4 11
5 28
6 19
7 28
8 20
9 17
10 26
11 3
12 0
DEPOT_SECTION
1
-1
BACKHAUL_SECTION
3
5
6
7
10
EOF
