NAME : S046_N10_C_R50
COMMENT : Mixed VRPBTW instance (bi-objective)
TYPE : CVRPTW
DIMENSION : 12
EDGE_WEIGHT_TYPE : EXPLICIT
EDGE_WEIGHT_FORMAT : FULL_MATRIX
CAPACITY : 200
VEHICLES : 2
EDGE_WEIGHT_SECTION
0 43460 43842 49616 49327 37676 50648 45107 33971 44440 48717 0 
43460 0 3498 6155 5867 5784 7188 1646 9488 3397 10799 43460 
43842 3498 0 5773 5484 6939 6805 2460 9871 597 7300 43842 
49616 6155 5773 0 6438 11939 1357 4508 15644 5509 12911 49616 
49327 5867 5484 6438 0 11651 5080 4220 15356 4887 6472 49327 
37676 5784 6939 11939 11651 0 12972 7431 3704 6837 14239 37676 
50648 7188 6805 1357 5080 12972 0 5541 16677 6208 11553 50648 
45107 1646 2460 4508 4220 7431 5541 0 11135 2359 9760 45107 
33971 9488 9871 15644 15356 3704 16677 11135 0 10468 14745 33971 
44440 3397 597 5509 4887 6837 6208 2359 10468 0 7401 44440 
48717 10799 7300 12911 6472 14239 11553 9760 14745 7401 0 48717 
0 43460 43842 49616 49327 37676 50648 45107 33971 44440 48717 0 
DEMAND_SECTION
1 0
2 29
3 30
4 8
5 8
6 15
7 23
8 23
9 23
10 12
11 16
12 0
DEPOT_SECTION
1
-1
BACKHAUL_SECTION
2
4
5
8
11
EOF
