NAME : S046_N10_RC_R50
COMMENT : Mixed VRPBTW instance (bi-objective)
TYPE : CVRPTW
DIMENSION : 12
EDGE_WEIGHT_TYPE : EXPLICIT
EDGE_WEIGHT_FORMAT : FULL_MATRIX
CAPACITY : 200
VEHICLES : 2
EDGE_WEIGHT_SECTION
0 43460 43842 49616 49327 37676 86850 54984 38260 8129 40772 0 
43460 0 3498 6155 5867 5784 43390 98444 35951 35330 84232 43460 
43842 3498 0 5773 5484 6939 43007 98827 39450 35713 84615 43842 
49616 6155 5773 0 6438 11939 37234 104600 33839 41486 90388 49616 
49327 5867 5484 6438 0 11651 37522 104311 40277 41198 90100 49327 
37676 5784 6939 11939 11651 0 49174 92660 32510 29546 78448 37676 
86850 43390 43007 37234 37522 49174 0 141834 48590 78721 127623 86850 
54984 98444 98827 104600 104311 92660 141834 0 93244 63113 14211 54984 
38260 35951 39450 33839 40277 32510 48590 93244 0 30131 79033 38260 
8129 35330 35713 41486 41198 29546 78721 63113 30131 0 48902 8129 
40772 84232 84615 90388 90100 78448 127623 14211 79033 48902 0 40772 
0 43460 43842 49616 49327 37676 86850 54984 38260 8129 40772 0 
DEMAND_SECTION
1 0
2 12
3 29
4 23
5 21
6 20
7 27
8 21
9 21
10 19
11 7
12 0
DEPOT_SECTION
1
-1
BACKHAUL_SECTION
3
4
5
7
9
EOF
